Si CD
   1.00000000000000
     0.0000000000000000    2.7338291972870294    2.7338291972870294
     2.7338291972870294    0.0000000000000000    2.7338291972870294
     2.7338291972870294    2.7338291972870294    0.0000000000000000
   Si
     2
Direct
  0.8750000000000000  0.8750000000000000  0.8750000000000000
  0.1250000000000000  0.1250000000000000  0.1250000000000000

