Si CD                                   
           1
   10.9379214455595      -1.200996587713737E-002 -3.242341442226137E-002
 -1.350092658647071E-015   10.9483424289431      -6.141335776284465E-004
  5.285903544400106E-020  1.244304721743162E-015   10.9317255457342 
   Si
    64
Cartesian configuration=  5
   4.78285853803069        4.77610374498786        4.74783423318827     
   4.80719049202058        4.77873767658952        10.2337595826829     
   4.79137911362166        10.2399006930167        4.73094942539577     
   4.73011181565865        10.2591785905659        10.2304297098165     
   10.2241914786000        4.78481916912195        4.77885372142176     
   10.2539074870361        4.74268740508478        10.2392741195355     
   10.2825156269199        10.2563845213385        4.80147302683037     
   10.2436496881903        10.2477469964597        10.2235464537522     
   2.06813013259588        2.01288977951589        4.79915047515379     
   2.04509981297301        2.06049259631800        10.2393255623303     
   2.05464268974720        7.53744511030478        4.77121154564716     
   2.04867945071106        7.50788493076152        10.2403728792524     
   7.51133848303250        2.05957546862005        4.76213119477930     
   7.50757494616375        2.05208176023705        10.2317922230679     
   7.49862713754092        7.50517223008771        4.76534456447624     
   7.52838874630465        7.50706750858645        10.2520909226962     
   2.08679997588887        4.81136351217927        2.02686717768165     
   2.05367588836878        4.78168512215055        7.49021983735077     
   2.03425144672623        10.2413120240589        2.03347943404161     
   2.05625433097438        10.2264185807616        7.51994258336362     
   7.51267739238342        4.77540584096034        2.04449910824739     
   7.52188020422278        4.77770715984516        7.49285821408410     
   7.52320575665968        10.2234438215475        2.01370210636372     
   7.51122480733220        10.2634503821374        7.52428798206124     
   4.74983117800797        2.04366437116076        2.02251208796421     
   4.76234655157275        2.02713710839985        7.51251515397972     
   4.81688479614018        7.53737725868552        2.05764205272164     
   4.78233915225473        7.51055874773341        7.52275516860426     
   10.2693151975368        2.06962261998405        2.01691096179394     
   10.2483936578975        2.04795580199876        7.47055404901561     
   10.2348909574358        7.50007093439240        1.99885925230996     
   10.2637910919712        7.53784180338313        7.49240622048583     
  0.693511140630854       0.696775669865622       0.692367473098257     
  0.693015025404111       0.708223503147878        6.14253541766189     
  0.702981213280861        6.16490890870101       0.676219059075497     
  0.684445863632672        6.16083425275981        6.16320644665999     
   6.15519402690626       0.646265368504112       0.648529005187164     
   6.13527447063713       0.701179128216625        6.11707950414798     
   6.17098317222484        6.17392949341752       0.678348332991151     
   6.17004782529678        6.16965579028488        6.13456836734129     
   3.42916667803537        3.38692185977079       0.663263578438131     
   3.39360215941072        3.40792906960511        6.14407470288361     
   3.42900162064616        8.89815849195552       0.686436579004857     
   3.41310456006857        8.88665215822997        6.14117769966085     
   8.87115868707051        3.42723457164005       0.678965009594451     
   8.88530658313999        3.41269516184993        6.12685063492440     
   8.87731447239313        8.86893968999469       0.635812107600747     
   8.90157954204094        8.89798221304420        6.14306219008031     
   3.41251627786953       0.690448680132095        3.37978862462864     
   3.40106442093097       0.667323497382205        8.85372485038381     
   3.43347145614692        6.15223282065501        3.44381566546520     
   3.40479486032442        6.16741156439499        8.89083147956499     
   8.88360836215811       0.729763959354352        3.37767961309795     
   8.88968532171135       0.664082214779963        8.84935025843769     
   8.89042587676174        6.14187145252425        3.38746986598210     
   8.89406322132142        6.15969263106115        8.82239986008411     
  0.700479898994058        3.43427911551055        3.39969165631193     
  0.638990201103786        3.43462171749935        8.87806273903844     
  0.677504705975389        8.88467905099109        3.38808424506054     
  0.707885187967642        8.88931103764059        8.88796671239865     
   6.13738718318713        3.39783996953038        3.39097526454021     
   6.11843544851933        3.40510194796823        8.87960643921360     
   6.17683057087762        8.87305987368697        3.37238031471259     
   6.14020885359768        8.91379582380215        8.84522586771195   
