Si CD                                   
1.0
       10.9353170395         0.0000000000         0.0000000000
        0.0000000000        10.9353170395         0.0000000000
        0.0000000000         0.0000000000        10.9353170395
   Si
   64
Direct
     0.437499995         0.437499995         0.437499995
     0.437499995         0.437499995         0.937499995
     0.437499995         0.937499995         0.437499995
     0.437499995         0.937499995         0.937499995
     0.937499995         0.437499995         0.437499995
     0.937499995         0.437499995         0.937499995
     0.937499995         0.937499995         0.437499995
     0.937499995         0.937499995         0.937499995
     0.187499995         0.187499995         0.437499995
     0.187499995         0.187499995         0.937499995
     0.187499995         0.687500016         0.437499995
     0.187499995         0.687500016         0.937499995
     0.687500016         0.187499995         0.437499995
     0.687500016         0.187499995         0.937499995
     0.687500016         0.687500016         0.437499995
     0.687500016         0.687500016         0.937499995
     0.187499995         0.437499995         0.187499995
     0.187499995         0.437499995         0.687500016
     0.187499995         0.937499995         0.187499995
     0.187499995         0.937499995         0.687500016
     0.687500016         0.437499995         0.187499995
     0.687500016         0.437499995         0.687500016
     0.687500016         0.937499995         0.187499995
     0.687500016         0.937499995         0.687500016
     0.437499995         0.187499995         0.187499995
     0.437499995         0.187499995         0.687500016
     0.437499995         0.687500016         0.187499995
     0.437499995         0.687500016         0.687500016
     0.937499995         0.187499995         0.187499995
     0.937499995         0.187499995         0.687500016
     0.937499995         0.687500016         0.187499995
     0.937499995         0.687500016         0.687500016
     0.062500000         0.062500000         0.062500000
     0.062500000         0.062500000         0.562500005
     0.062500000         0.562500005         0.062500000
     0.062500000         0.562500005         0.562500005
     0.562500005         0.062500000         0.062500000
     0.562500005         0.062500000         0.562500005
     0.562500005         0.562500005         0.062500000
     0.562500005         0.562500005         0.562500005
     0.312500005         0.312500005         0.062500000
     0.312500005         0.312500005         0.562500005
     0.312500005         0.812499984         0.062500000
     0.312500005         0.812499984         0.562500005
     0.812499984         0.312500005         0.062500000
     0.812499984         0.312500005         0.562500005
     0.812499984         0.812499984         0.062500000
     0.812499984         0.812499984         0.562500005
     0.312500005         0.062500000         0.312500005
     0.312500005         0.062500000         0.812499984
     0.312500005         0.562500005         0.312500005
     0.312500005         0.562500005         0.812499984
     0.812499984         0.062500000         0.312500005
     0.812499984         0.062500000         0.812499984
     0.812499984         0.562500005         0.312500005
     0.812499984         0.562500005         0.812499984
     0.062500000         0.312500005         0.312500005
     0.062500000         0.312500005         0.812499984
     0.062500000         0.812499984         0.312500005
     0.062500000         0.812499984         0.812499984
     0.562500005         0.312500005         0.312500005
     0.562500005         0.312500005         0.812499984
     0.562500005         0.812499984         0.312500005
     0.562500005         0.812499984         0.812499984

