test
1.0
   10.3153565071903      -1.372715094309676E-002  4.630815064349236E-002
  1.780298291847826E-002   10.4809376975172      -0.105618305981999     
  -1.79529617765809       1.692773401311522E-012   10.6508073337044     
Zr O
32 64
Cartesian
   10.0756638078324       0.193232007505420        1.09329261700781     
   4.70993958943675       0.342526080934868        1.13927568220060     
   9.67574311233084        5.59515851394762       0.994525977305473     
   4.82767478118657        5.43813169375073       0.942061068586052     
   9.13126555581425       0.210597694533550        6.54789607279326     
   4.09535647770879       0.213058557995557        6.24700227544058     
   9.00627304900942        5.23617694863503        6.26651244698976     
   3.95044359909544        5.45459518248735        6.29254945307181     
   1.45991373115913        5.29176386577406        4.14458670622709     
   6.36389319245326        5.08798704243248        4.02650544500975     
   1.28013377873377        10.2020963872533        4.01702861054239     
   6.60813755413832        10.3171116479558        4.02365359480217     
  0.442713533344043        5.07529907222694        9.48013580588105     
   5.61026343841664        5.08754716739764        9.50741952383825     
  0.655961511580795        10.2509370009743        9.34516393864456     
   5.76361592184500        10.2834762603932        9.36592844270403     
   1.80316177093218        2.89358993506064        1.55930576368616     
   6.99971068607568        2.81092994578111        1.39250787134802     
   1.99149077708256        7.96586771677866        1.21444054115063     
   7.05149706555032        8.28396360214232        1.35176410927896     
   1.04629693633940        2.88131715402988        6.75473609171486     
   6.14803368013079        2.78153867041229        6.89215643192998     
   1.17254698679593        8.27307910880481        6.76792084982180     
   6.33919450010366        8.13191934887149        6.63044755278550     
   9.58538585270149        2.64537059675237        3.58826095360601     
   4.37506292126037        2.43088311730561        3.77039571461552     
 -0.647493825785438        7.29814305094495        3.87854316731028     
   4.20868463343705        7.81681736498447        3.51719372044754     
   8.64504486493806        2.42699060011083        9.07267484694075     
   3.51474489496292        2.35003052538075        8.91674640154988     
   8.67333878355222        7.53853763244983        9.02079536994717     
   3.56338579409306        7.50228266106994        9.00851792524975     
   8.84462431566856        1.65006025043364        1.66678339889658     
   3.31796181294985        1.65613398379789        1.90792896957736     
   8.77477767252491        7.27224466282176        1.82917559086460     
   3.63909901235949        6.90966478331690        1.74046921427083     
   8.04830422370823        1.50064286499591        7.30925471265909     
   2.85160579334211        1.67928129341878        7.16241727007775     
   8.26025124394562        6.94887061358027        7.19195524516578     
   2.75174643798572        6.90991482407727        7.14338822934479     
   2.83346290258358        3.64587666920331        3.30864946792841     
   7.80672313165362        3.83822490263512        3.26295935941427     
   2.32391206994249        8.66828463452483        3.51815223978207     
   7.39970813025636        8.62258297872208        3.26011521541939     
   1.70944355796856        3.81581816937307        8.61304889356549     
   6.81318856452747        3.47150586248144        9.01592000204587     
   2.16900518648071        8.89606832366204        8.59323403125063     
   7.30813646276427        8.78589305785300        8.64570559884258     
   2.96030986826898        4.32836789931005       0.774224858474708     
   8.29263441019964        4.23900279531912       0.455313070659548     
   3.16079465925136        9.67208583010955       0.642771527097802     
   8.26746895436117        9.79265469492364       0.601714652821234     
   2.29601964513871        4.47532917797084        5.91443751061050     
   7.06312235868833        4.62184359346895        6.40867492355061     
   2.13981001414500        9.74787689699685        6.12192241401219     
   7.27440933945529        9.77958177181210        6.12828168172084     
   8.26432444834896        1.19128888458703        4.39535140018860     
   2.93202540727552        1.00847878525728        4.66643367402214     
   8.07829735889233        6.19702528079103        4.40304759198757     
   3.05163631800376        6.18915881349387        4.44423276453657     
   7.59858485517580       0.839115735790708        9.47402949931434     
   2.32645964902439        1.08810648696092        9.91524103111526     
   7.45345019975423        5.98518170650573        9.71467595529424     
   2.47739773481370        5.93615976877801        9.72383130700758     
  0.253907485940548        4.00943143775781        2.18009888325010     
   5.31156771878739        3.84347860776082        2.53445403009787     
  0.580175293825942        9.42914073188315        2.22160512826941     
   5.23698542102106        9.40276664638206        2.49299277622259     
 -0.637982839009364        3.95354393304568        7.65380816323482     
   4.67554740592556        3.90887347568537        7.91965411408314     
 -0.334841352856875        9.32627426858563        7.64506699305804     
   4.70476070211474        9.08698353275369        7.65113910711741     
  0.770699915765540        1.46552833236812        2.98776756233610     
   5.93784892166607        1.46852412388572        2.99606858266006     
  0.804072567458900        6.65835787889665        2.74244565934482     
   6.03513667363864        6.44180361229897        2.59264172428782     
  0.100423169917508        1.34079392931106        8.26747375148585     
   5.21492278017672        1.14715112461676        7.96466409638210     
  0.143514965681562        6.32250653837271        7.86730905061638     
   5.20788953898494        6.61273613576841        8.02163799748866     
   1.40407370585644        1.47413321142955       0.131332876623852     
   6.46864860203728        1.43638691908283       0.219818070307158     
   1.19680663887312        6.68328444560743       0.183224161012050     
   6.53300662801222        6.72275817737044       6.538863355683736E-003
  0.246867192846817        1.12734017286839        5.54368475801658     
   5.42146403212860        1.40594581335311        5.38359944983022     
  0.403768710313920        6.41311790165195        5.37525457300508     
   5.29519954894231        6.78556281901576        5.29927336311346     
 -5.826814180419738E-002   3.96732118589864        5.13529335405620     
   4.94920205656340        3.75359243276497        5.45550289036320     
 -3.463508011565392E-002   9.04518179530177        5.13707173786996     
   5.09152789786925        9.21325278321830        5.03860471914663     
  -1.24820406758461        4.03672915240577        10.4966735150749     
   4.01842384130661        3.86684431623335        10.4836165827858     
 -0.832457928751661        9.08333077320753        10.2996756699022     
   4.29111207035134        9.45099261851590        10.4952006896057     
