test
1.0
   10.4270623646110       0.450735190447539      -1.391211175450659E-002
 -4.519738002308459E-012   10.5495080511378      -0.193866116349137     
 -9.857467013452473E-013  4.844832835571191E-012   10.6604183486582     
Zr O
32 64
Cartesian
   1.69596049716255        8.92610498702181        10.3928983503169     
   6.32435133961626        9.58461198161461        9.65366837719784     
  0.874269801820263        3.98269160333077        9.96752103191835     
   6.59352072822968        4.26568990935453        9.48589133778016     
  0.821706916567256        9.42210194830725        4.16233369471671     
   6.48249713329085        9.51629217110652        4.11511378762769     
   1.39413019648869        4.19271318624996        4.49219848423728     
   6.29305396845077        3.82237960056412        4.51454910524794     
   8.97731060704998        1.47514477827035        9.74596002665088     
   3.99277278376292        1.71511217174577        9.96521210645947     
   9.13357128376322        7.39914740617660        9.51632136169934     
   4.16556163682264        6.74099326033261        9.98436323137186     
   9.10378044960924        1.75508506567786        4.51351632075204     
   3.77074826769351        1.41810759776336        4.59828050663233     
   9.47431475855763        7.27678375077754        4.35967667777640     
   3.96054813342876        7.07778781557221        4.71495942264250     
   8.91454940502529        9.60474325554330        1.62872334928320     
   3.72931282726313        9.09446148302925        2.14084216527376     
   8.49549806807934        4.22209759904946        1.72439090229352     
   3.86255947705084        4.06493494925991        2.03568094450077     
   9.31776747944584        9.72712596516465        6.62536271920452     
   3.57616172549823        9.32349713603625        7.37387643877749     
   9.31558105256006        4.74604891651672        7.16029521818759     
   3.97771956943453        3.85249805844548        7.24570285545401     
   1.13166787779475        1.66791213410607        1.95113275601666     
   6.34875781817044        1.61676362085918        1.93221601614179     
  0.899056889117842        6.15785230156613        1.75151682666011     
   6.21867999918641        6.51634231114928        1.79394881246566     
   1.19432055734953        1.56345491000741        7.30997440732414     
   6.38347969639789        1.48191792856828        7.01135242483625     
   1.77683578348359        6.59817193644837        7.52038311905726     
   6.48270191380356        6.77157632225025        6.86278074386917     
   10.2785509876562        3.10550424127005       0.593029628550829     
   4.77416509224502        2.58223109515353       0.907795229842672     
   10.2862709342133        8.58072128791349       0.392373525836294     
   5.01045101081611        7.89328580433614       0.863838757738235     
   10.1999342777963        3.04264433385127        6.04095891290410     
   5.42939886286797        10.4019490212920        2.44865282709015     
  0.119005331315890        8.16550735061915        5.56293075370948     
   5.23329035565490        8.31702763030787        6.06647534575390     
   3.24225182880456        9.86809166502679       0.503552191481424     
   7.85205256975306        10.7716322672598        3.28629235308144     
   5.33689752204926        5.43447043897366        8.57910996348134     
   7.28975615479565        5.63048221989758       0.436609776216619     
   2.75259884480529       0.625059053629980        5.98998096416503     
   7.45141823122185       0.757936955711810        9.01985171463348     
   1.81480680610620        5.74684222675771        3.27814775790503     
   7.81415996934811        5.83800355324421        5.58030476363354     
   10.3539509743900        3.66788090871564        3.17428672574877     
   4.91958620378969        2.66751107677392        5.97645965569615     
  0.195696416141359        8.08557023771305        3.04230309155076     
   5.51706146779411        7.54158631217636        3.79727057958000     
  0.115475794216830        2.96476735759569        8.31479013161767     
   5.16251532922589        2.72819014336739        8.64159389454547     
   7.83301275297312        8.42325962488811        7.73378955294622     
   2.73953490671572        7.92887803971116        8.82047814097244     
   2.73202213218359        10.3887959092962        3.40133377053678     
   8.06417308571429       0.405776806088123        6.05844956023852     
   2.08350588826183        4.35055749811930        1.24610640417773     
   6.95979704698832        4.91344482901064        2.82801255175048     
   2.11667151270104        10.4354810027528        8.59579157742008     
   8.19091435410757       0.622719786879510       0.909635568999813     
   3.14924439578414        5.56773290069088        6.49871943635602     
   10.4205725354616        5.80058557615264        8.55753260022844     
  0.166328824440514       0.543461761873507        3.42915076951512     
   4.97152435425085        2.61262197453246        3.14103221476775     
   9.88075914143175        5.80271339583098       0.413681473327532     
   4.24799628662230        5.00096282529944        3.79368692730622     
   9.69180588372358       0.975709942916734        8.13410218716495     
   5.19661216067931        10.7047525296586        7.90372558046778     
  0.499766649226658        5.43011351492908        5.70837989141291     
   7.74007859236372        5.87682489351764        8.20830657554998     
   2.40712689055167        2.69614797543828        3.25173740423244     
   7.83912829263801        2.65819874325084        3.10293203640430     
   2.71550516770653        7.91453770100859        3.61417220614061     
   8.05772058771921        7.78206975163952        2.59976385045397     
   2.54226604769084        2.51549051042847        8.45642966517784     
   7.84276389134225        3.50036341292145        8.18514940065524     
  0.185575416216195        8.02481157346390        8.20659076710548     
   5.02604132252805        8.09936159108600        8.76982815077855     
  0.479782671523687        10.2936203318124       0.851402001049207     
   5.72342734153655       0.439839458210719       0.224832560089559     
   2.49708371210278        5.29109174508421        9.09536453523654     
   4.92705208649598        5.38162664583779       0.540037983854766     
  0.312832857429310       0.282764495009607        5.80712446352196     
   5.70163315914687       0.565296854394451        5.08633176829742     
   9.84426286541728        6.10566563549074        2.92828128882880     
   5.41846341533628        4.87271789345701        6.01117759664255     
   2.38521058268620        1.71581728722811       0.398535065459871     
   7.40722316184597        3.18401985336244       0.343197393737608     
   2.58365370522865        7.29578352774247       0.911320662187378     
   7.95603163294797        8.53796465486722        10.3708411683992     
   2.34398812679572        2.90913358383554        5.81896306498323     
   7.27086478927645        2.64210751505010        5.57530492005413     
   2.62925940704320        8.01873733349664        5.89641239328163     
   8.33066217419077        8.84968355278651        5.09495952303913     
