test
1.0
   10.4094251699905       3.572667328005995E-002  0.172089771189515     
  1.094849677989773E-002   10.5031821295197      -6.495325464622106E-002
  -1.80621396475654      -2.274148873777029E-013   10.7155783996836     
Zr O
32 64
Cartesian
  0.773985079643250        9.82232417847741        1.26717182675947     
   5.86093202246783        9.92888696530067        1.37724094073605     
  0.697780786267858        4.49443847158599        1.34953483916269     
   5.81887789444593        4.59053889657968        1.29002926270615     
 -0.144374339391878        9.66492523067152        6.50176090218564     
   5.17094726370677        9.94457195904688        6.67306546444239     
 -1.737746189517689E-002   4.89014543679494        6.88077129580410     
   5.32254510281428        4.65353087962766        6.76998247093817     
   2.76907876512564        4.23283280539275        4.80764150431451     
   7.95786720345978        4.28086557584305        4.53573377969707     
   2.50913048951994        9.31448838963332        4.58087975457698     
   7.90288137185289        9.38575842743014        4.36894544755808     
   1.79434626791934        4.18374272679586        9.80692390989348     
   7.01303991882160        4.16164299873168        9.73942625197997     
   1.73937113502490        9.60333329598130        9.71777507957813     
   6.99989519312475        9.71842042902741        9.97436897575698     
   2.98677439406781        1.94909532224749        2.00316986033977     
   8.26294440977368        1.85605740189304        1.84988383038732     
   3.13923096603976        7.18799049965542        1.88887346786060     
   8.31064849946574        7.20516019115671        1.91007454178636     
   2.26027795338670        2.14608209494881        7.07964750933984     
   7.46348223606075        2.12283761934734        7.10202952175829     
   2.37955679282643        7.22026119777804        7.25956496229304     
   7.31227612979157        7.45117064832566        7.15088887604032     
  0.313819009193392        1.41776535717810        3.89993755107429     
   5.56283271213310        1.58221644612026        4.26129011442470     
  0.474448373133104        6.67938148629855        4.06770823734838     
   5.70601114504356        6.92266322551950        4.06689693480151     
 -0.639303945488303        1.55342998565707        9.30574596372739     
   4.63031087655553        1.58423005787350        9.36722332999552     
 -0.746226575020539        6.84150356314057        9.30136062666822     
   4.73300349013500        6.84566336748505        9.54292079694704     
   9.62117507478350       0.380331493644794        2.60861878449501     
   4.66642332954816       0.797210241759848        2.28638468955821     
   9.89805249305706        5.98396333516346        2.30622305483713     
   4.89286912774517        6.44590998761832        2.07030936112773     
   8.96938849208450       0.510294174750954        7.85290973699994     
   3.98484344007954        1.01537263471551        7.22741468001330     
   9.03101186795996        5.98777336125062        7.72903309020740     
   4.15370452077890        6.36643507954854        7.46295317430491     
   3.94662266640777        2.76156828428082        3.78520857961418     
   9.23699459018276        2.80912339163921        3.74318309982385     
   3.74611602845457        7.80984266627543        3.77526789891535     
   8.97627059086376        7.93646042946674        3.95371782448454     
   2.93650180912927        2.64147167446487        9.08647559053898     
   8.19960239909616        2.80890757097439        8.93072541767634     
   3.06067933789201        8.06662999090924        9.09943304675104     
   8.31447878179998        8.11994426834941        8.91088161167459     
   4.30593851490771        3.48625344087547        1.17913042480231     
   9.61339152494490        3.27629668875561       0.871235664382527     
   4.13013934799520        8.94172219027536        1.19374460160026     
   9.68916605380292        8.57821063666592       0.817465925745410     
   3.52428836412034        3.81357334103029        6.34139762700510     
   8.66669839350532        3.47684909273519        6.42994907138578     
   3.35078321577522        8.75639439846487        6.40250109084126     
   8.73492531330749        8.55681908288418        6.27552915802551     
   9.42740413563660       0.146015411144407        5.10810768722380     
   4.36058005950405        10.4025945241747        4.89526509279876     
 -0.618732945640118        5.18271779216211        4.81111815780866     
   4.51439603636952        5.48206296060033        4.83153725033940     
   8.54753868191968       0.279417831585055        10.4417738191501     
   3.59285369977719        10.5158118870813        10.0867901637325     
   8.35847393250450        5.44601341773686        10.2213579280799     
   3.40990581574265        5.24754714382854        10.1445851168629     
   1.43449066806203        2.96179920462839        2.71008082342773     
   6.90370842754043        3.34704921883187        2.67954800439165     
   1.43564811332634        8.22256268901630        2.85568328296140     
   6.76446707986010        8.34172894936836        2.82498549489524     
  0.544039806986755        3.23523015761186        8.04386843307686     
   5.93577318339493        3.21423960826973        8.16440907362247     
  0.573448450950166        8.41760631797617        8.01406596926973     
   5.76861516489141        8.45548971688398        8.16843005515729     
   1.83896034655723       0.332843729562601        2.94487968043328     
   7.00909595505833       0.436058179895311        3.36958309523667     
   1.78208045976743        5.42326492754253        2.96377753788117     
   7.25122859253719        5.77782248945146        3.17516094234448     
   1.15024381891791       0.780054895089087        8.49666859444914     
   6.23518205478823       0.618515318888722        8.59020202624484     
  0.945864373183754        5.63296398191988        8.61833938602338     
   6.28936107160663        5.78104781611213        8.53468015160986     
   2.31900519643498       0.514822894781761       0.637763908121604     
   7.58185734460870       0.617336815822413       0.612041064065970     
   2.33765805414017        5.77207751202687       0.608338399989434     
   7.49997038136752        5.85868361577404       0.348941935754477     
   1.39648142499821       0.389732683656980        5.64830324628054     
   6.69719355321735       0.833539257775858        5.88944016571685     
   1.68331662890683        5.69976804376760        5.74247433814334     
   6.81972952967434        5.92998868395027        5.85816837814506     
   1.23987449078334        2.95998800953158        5.30100297940317     
   6.38681334419785        3.28751412322075        5.32481850665434     
   1.22363217239845        8.20960140251520        5.53625971835946     
   6.36288706578539        8.44282424540403        5.32402211538503     
   2.03749397662706        3.13020948767600       4.825808130240337E-002
   7.17075077495344        3.03641510182333       0.135544313167065     
  3.596782976309858E-002   8.53720720593979        10.3394662454088     
   7.06103421542034        8.32682536526554       8.133523585878225E-002
