test
1.0
   10.3992611577025      -0.191488777084842      -0.132632554856227     
  1.636951183384185E-013   10.2148136403269      -0.113521103742069     
 -1.223361718750614E-013 -5.106243898775070E-014   10.5518407999118     
Zr O
32 64
Cartesian
   2.45633778656964       1.541040088935918E-002   10.2156609073473     
   8.04313541794327        9.68392221112619        10.1390908952962     
   2.40441182032339        4.95132117595538        9.94285671736239     
   8.36240867975630        4.44580118485345        10.2337153509796     
   2.81678953180756       0.371286640984768        4.82316164899142     
   7.68192253405920        10.0647757999360        4.86115172645660     
   2.73796107763728        5.29687437479764        4.69521823042367     
   7.35451391617460        5.01564346820833        5.11461467377653     
  0.115037305990557        2.26308321767805        10.3488040142644     
   5.25913979449817        2.08343964073641        10.1573404066891     
  6.965363018603465E-002   7.51260961549533        10.2524829457645     
   5.32159109359924        7.24943851788035        10.2036427193423     
  0.110313004570725        2.80038831722956        4.87623203163766     
   5.12740838649405        2.68203409291932        5.13371496260388     
   10.3111057403878        7.64063164796320        4.96975124028013     
   5.22913946712841        7.62022882525132        5.17300527447616     
   10.2052360943372        9.85553781435444        2.25899473693707     
   5.14214896037604        10.1089609242525        2.25374054139252     
   10.3314741524868        5.07492222411830        2.24135779748505     
   4.99868203249278        5.01052406177656        2.17557975541786     
  0.491271849299274       0.307645795486554        7.45809542227771     
   5.48725463978536        9.69118841091584        7.83887968890012     
  0.131320245469382        5.10419282100230        7.45942053724195     
   5.52175987909271        4.86237018051194        7.93926654529369     
   2.41274101839966        2.68463629738227        2.11498068213954     
   7.44952749338136        2.42611568733991        2.54012972361598     
   2.48983641616399        7.64821011102592        2.28982451725724     
   7.85884420977703        7.65710137800781        2.23931884291392     
   3.01753297741018        2.47926677900717        7.71333099541942     
   8.21848478545409        2.26859236317713        7.65128998256563     
   2.75755063906295        7.60725224884793        7.58551431966004     
   8.30146002986738        7.46983581678451        7.50750172611830     
   1.47452834609787        3.56825872643194       0.319952617012705     
   6.78815755311622        3.54172102876986       0.880814520762421     
   1.57539395258092        8.46836632151977       0.481362288174384     
   6.66088809389261        8.64358895012745       0.741188251474638     
   1.10633257073582        4.13676136986885        5.78069769814182     
   6.50393574330597        3.47399632194053        6.36107558740309     
   1.34818439407824        9.29456506917929        5.71362873318349     
   6.66984818233884        8.64348933061281        6.12097185572717     
   3.85937757917855        1.02545962286980       0.818718005482554     
   9.41626666254516       0.715581270659507       0.605286900780120     
   3.69137044144753        6.06061149099994       0.526380302245556     
   9.09818163310855        5.98494251371925       0.625760565676486     
   4.17621676440306        1.17133143265662        6.17306734849538     
   9.33397646858094        1.14183762767498        5.83152304233087     
   4.00396880697852        6.53970438811050        6.18433460547396     
   8.95182621496875        6.33652567961528        5.95434241524755     
   1.03008108933034        3.94547584558712        3.20517780218659     
   6.19579589126480        3.77896843779350        3.62759976716472     
   1.42569116083445        9.07340230420065        3.11783143235813     
   6.71344661460728        8.94471894498748        3.33216684072395     
   1.79363311610811        4.18116463472887        7.90914374259465     
   6.98321079594378        3.52017236004645        8.71081552888908     
   1.66896020265582        9.38795932837343        8.30488761386920     
   6.79879304812127        8.59295905125146        8.83466479986471     
   3.84299915640808        1.58092089661842        3.45506522836995     
   8.87230836090093       0.915102300032907        3.03355489207816     
   4.02500703134588        6.37306440006836        3.42295310178759     
   9.60869865969134        6.25806266069469        3.57408323545706     
   4.21176759801544        1.09694887459869        8.67348104332650     
   9.31001995436813       0.741993864316812        8.58786294666043     
   4.05510266091698        6.24234785525485        8.72358763402910     
   9.12156731755870        5.81752208685801        8.67890785542011     
   1.25263951696904        1.31362642547053        3.86185742366237     
   6.58162096206045        1.30327303788771        4.26217672399593     
   1.35972202523387        6.43968220080046        3.77504143949733     
   6.92043891781599        6.63571461916121        4.03697750601056     
   1.82738778211994        1.68696965644096        9.16203832301313     
   6.48770709023154       0.989014413317820        9.36217456761157     
   1.49098865023668        6.33959039198666        8.86633239823019     
   6.55213263243205        5.99068509818017        9.43455013049413     
   3.78024365520935        3.74085417644357        4.05818427997455     
   8.91912343601471        3.73336374874599        3.83130549274119     
   3.81895597085992        9.09239428437730        4.17661406441210     
   9.19760676800950        8.70614355133828        3.89858116667535     
   4.18626567470149        3.62510076507485        9.06995257538237     
   9.73167140625945        3.42520603607196        8.77791662519071     
   4.27073564757870        8.85481589304398        9.20824845939034     
   9.36030821599087        8.36173597717948        8.92004637025490     
   1.46456986390221       0.910666151911570       0.974440796195639     
   6.38529463992321       0.969392713237722        1.35946167609826     
   1.22948816608227        6.18673242330396        1.02354035385233     
   6.42019448222845        6.41075090237378        1.35604494082333     
   1.72296076648723        1.63302577252276        6.38366745466633     
   6.79174408119976       0.700666029574271        7.00344655962613     
   1.59630566190660        6.41543311359287        6.30304450612911     
   6.52928448994137        6.42307625283738        6.72663822013352     
   3.98657883913518        3.52808944586425        1.33772369207741     
   9.47575824433929        3.42959653767039        1.05084017211718     
   4.15882227877227        8.54597764352882        1.44479456716108     
   9.04861773342641        8.60021032961144        1.15635561742231     
   4.06973789900502        3.97409244336934        6.47986841602113     
   9.11886996650654        3.72138039607430        6.37238018418671     
   4.02330017722363        8.82523819858502        6.59359731955780     
   9.36301503167183        8.86085467323597        6.40038445552348     
