test
1.0
   10.2473752926983       0.154629410693661      -0.335569308401700     
 -8.465695620185859E-013   10.5205129611279      -0.288451815895615     
 -1.356451153250629E-013  5.787913492489937E-014   10.4541643688643     
Zr O
32 64
Cartesian
   2.79606592541447        10.2147857178037       0.101138649735164     
   7.48476885938935        10.3776975177246      -0.122098269103997     
   2.59457658275175        4.85799470959544       0.420999764593498     
   8.01459240441637        5.48656201824084       0.526101862929769     
   2.52612426185574       3.912472897732178E-002   5.51316513216379     
   7.65699961590376       0.267889587427927        5.11357359904583     
   2.73475429091927        5.36362474519005        5.64435703784071     
   7.94912238057169        5.63796163924742        5.25820288106062     
   9.89770968251261        2.77500552666186      -0.244432414039927     
   5.41725414100216        2.80542572233504       0.422322481491243     
  3.299820779857173E-002   7.86542923794430       0.359827071637016     
   5.28138917725791        7.62211483611208      -4.821357179244906E-002
   10.0913789028205        2.97877697569694        5.51238902064787     
   4.92257502002922        2.73397571974876        5.50839535004077     
  0.227092862464570        7.90040648585252        5.58156968324072     
   5.24086300114610        7.64151345017832        5.56260973168310     
   10.0899887358021       0.181956736725914        2.63517487984910     
   4.97440375970479        10.5358272411739        2.38556347233566     
  0.518827284434450        5.34540431089095        2.97207691023683     
   5.22766864031304        5.39889500209916        2.83884396793628     
   10.0557378407343       0.496897511629445        7.83404744886843     
   5.03526594967404        10.5904817388178        7.75086306500259     
  0.165509027904606        5.29850190582166        8.46291730175480     
   5.44397475297914        5.14155838510681        8.19872001069712     
   2.26007282115064        2.38605969624752        2.83373409114145     
   7.71297369285250        2.88144350978208        2.86831259566912     
   2.55600469031824        8.02494058966004        2.89302825541246     
   7.74007169555533        7.87410018289680        2.85017967181696     
   2.68972211521360        2.63689494714334        8.25231208963893     
   7.61015850992146        2.91404936040420        7.78775955787427     
   2.78220390535588        7.74606441925957        8.24028714452754     
   8.00851609206133        8.05468711036151        7.77330517613946     
   1.32860022508659        3.82954206973584        1.53237198542017     
   6.69165546512643        3.77117137081885        1.20437114129373     
   1.37724692253612        8.82801314347101        1.29099039722274     
   6.11257947095856        8.96460341295193        1.30513765772640     
   1.57899631846309        4.18991432152119        6.74891620267700     
   6.34365945453610        4.13369423614817        6.21305740140361     
   1.22224230769921        9.47170942034139        6.44162874884891     
   6.72591447137737        8.94158467785905        6.22010251452670     
   4.06318653231973        1.45689523804748        1.17527015928045     
   9.25141528662452        1.41692521672285        1.09288818470638     
   4.32452960558316        6.12027594411477       0.883792213367780     
   9.38234753936411        6.70961926757568        1.49100344120495     
   3.74751534806529        1.08900779130589        6.53347521285046     
   8.88957462732826        1.53814020858979        6.42848770443450     
   4.27339341876681        6.41064725857486        6.63359911168341     
   9.20589274644868        6.84984237471418        6.67761893078363     
   1.78370811079052        4.17830143669215        4.03276212460737     
   6.87672254120634        4.28169007632175        3.64804331935202     
  0.947486491371897        9.04387124546170        3.69114707367001     
   6.25620385218231        9.37381675876190        3.68941139422467     
   1.42858538319771        3.90097686143898        9.19438227595839     
   6.30618995885356        3.46296406525653        9.08376716302133     
   1.73673785590112        9.16113887403164        9.23589845404507     
   6.76827387602615        8.71527782909793        9.32588508608007     
   3.90659438830785        1.31892716984840        4.17769967731083     
   9.20164371235696        1.68511733056106        3.78006418625568     
   3.89077085448761        6.56081954110849        3.84587831873875     
   9.09846617187970        6.89029501664941        4.05875303240232     
   3.50278861762104       0.869033832090159        9.24299454122309     
   8.51765337419645        1.59499334686622        9.18170848543444     
   4.02786852131027        6.47653620591417        9.00431762284686     
   9.23285157487847        6.78557539174714        9.10623245485677     
   1.28524437335448        1.20171834635008        4.32697358765968     
   6.50343793075692        1.84631671462739        4.18412156981519     
   1.21991462477559        6.34093843899361        4.45347066285710     
   6.39928602069626        6.69336064163090        4.21496600494306     
  0.809393912243025        1.24876931815251        9.93834229623372     
   6.01140719824658       0.753927487328320        9.57874788073461     
   1.39712448801034        6.33982148251294        10.0058556324747     
   6.68013948666857        6.14069414494469        9.56664094107598     
   4.60193432141026        4.48939509072536        4.79505759393038     
   9.32839178086925        4.52380047500476        4.28054817281434     
   3.60276138908072        9.03704225309313        4.30678843315801     
   8.78821717929636        9.40115275833790        4.22280875168776     
   4.11988082136638        3.74066429871746        9.58847032428742     
   8.85184964378963        4.20882755496342        9.27212959342225     
   4.10435368759748        8.87760273282076        9.52196396762017     
   9.16301969420123        9.25650866953752        9.15316230687865     
   1.59860539556765       0.817192976687877        1.83533283284586     
   6.55952104697118        1.07661168945917        1.69185836623866     
   1.90196071518261        6.27845798497340        1.87779293989251     
   6.77044830034335        6.47319223280511        1.79640907265641     
   1.17909900910829        1.60053073777671        6.96141332841847     
   6.71060788924266        1.07976905298604        6.93854460849610     
   1.54128253758025        6.62694336479206        7.10176741015499     
   6.55304528489108        6.45162028772639        7.03071590423666     
   3.88662521714085        3.97401002607086        1.60972930109730     
   9.16297253585109        4.09515423685143        1.53130087312596     
   3.72655510570291        9.15473097288365        1.56501451430271     
   8.68674662570489        9.24223813871005        1.31191834162702     
   4.16068501750315        3.84105682461068        7.05397990880045     
   9.11108232784076        4.11043307220973        6.57617849119671     
   3.96602339712288        9.01730089106139        7.00270952572622     
   9.30992616751743        9.23462555933219        6.93916756727720     
