test
1.0
   10.3976363016576       0.152318876248426       5.648601871411807E-002
 -2.307087386681744E-003   10.5401741542930       1.368706933744496E-002
  -1.79724496223796       3.153355082218077E-013   10.6623687293041     
Zr O
32 64
Cartesian
  0.476131403893266        10.2081576908930        1.01599539204469     
   5.37732422455470        10.3512031930850        1.02780742096819     
  0.513426779958258        4.81249720947167        1.04539208165000     
   5.61137427054511        5.24106335104073        1.03427167642135     
 -0.550118437092135        10.2803328435777        6.23259645026035     
   4.72299106653595        10.2299544562582        6.43506885981798     
 -0.534710347039556        5.07681685411476        6.39315227085355     
   4.75633507658870        5.00643566842974        6.36257913418667     
   2.34432936679387        4.65553665397755        3.99901938109485     
   7.48644348233504        4.81480220493290        4.15546777524235     
   2.39919123402073        9.78839688213777        4.26329668161178     
   7.39790733325180        10.1206684327593        4.14094911711048     
   1.36176614731645        4.77099533322872        9.59543385322680     
   6.46046186948381        4.61332408062355        9.54769036296296     
   1.29781830103599        9.77179480013851        9.41614556510035     
   6.54727613101327        10.0574098140144        9.58169157894967     
   2.68929329165659        2.33846451186282        1.39687418399655     
   7.77045607002992        2.50953465723135        1.51495177564874     
   2.67651894789313        7.58753212413711        1.26784172662800     
   7.96491860471392        7.82643595535647        1.46411817653752     
   1.70330438799206        2.37791856112591        6.74563952337108     
   6.92534502617606        2.42543069412647        6.70904185162452     
   1.79789060167826        7.58392073776371        6.78448644407275     
   6.96845393671420        7.67423510991129        6.90479865977671     
  4.947451691138250E-002   2.04207964083780        3.51331468645613     
   5.07247042763287        2.06549405914115        3.72509411541914     
  0.152709827683288        7.21588397471146        3.51319514458029     
   5.31270874205639        7.41271167727657        3.69415820225588     
 -0.705804209446001        1.89441233288505        8.94471004509174     
   4.11255479970397        1.98461010198224        8.95767939257722     
  -1.34998614778247        7.29152537312336        9.01812926314783     
   4.37322606472719        7.32042520441063        9.01350656691955     
   9.51853193315291        1.11629192296374        1.74367295258374     
   4.26843407128875        1.23604726693960        1.69428525602652     
   9.54878903940857        6.58264501850754        1.71433013069312     
   4.62963952658714        6.73069165046710        1.62082127289180     
   8.80711827761105        1.51320172120878        6.96648750677390     
   3.48333058776956        1.42350914898615        6.88929001770915     
   8.45419583359178        6.55416517250096        7.45372786579713     
   3.49130051450992        6.37331999720167        6.82725200906098     
   3.24400964160732        2.98763669172009        3.40325910296947     
   8.78336486677263        3.40239172544223        3.37212847448775     
   3.45040359094964        8.08405226705817        3.44144066885405     
   8.79710041278824        8.77902407560740        3.43760116134712     
   2.52228358101844        3.06638386487047        8.85552579124929     
   7.79101513901105        3.10204285563029        8.79620504515136     
   2.89752287680632        8.58178539903877        8.68842792788099     
   7.69528743124134        8.66329305659079        8.62685027625059     
   3.81041302300155        4.22193673263405       0.984590533294097     
   9.17712275112934        4.06291096346044       0.770845436839175     
   3.78526013575563        9.34891756832214       0.838760831401798     
   9.40672933328228        8.98458386182793       0.578607972108699     
   2.90162913250004        3.87779109700306        6.05006881339375     
   8.06959869625811        4.27376267352071        6.15833749450036     
   2.99763788375430        9.24502968724553        6.12826777962149     
   8.48134708100891        9.16777975366661        6.26949557417733     
   9.19812648063844       0.733292690340552        4.43876609716093     
   3.86370034207237       0.486100398234022        4.37863603725397     
   9.11536719038880        6.12072168349913        4.75647151956090     
   4.03481080803910        5.63144084951283        4.18810681147273     
   8.31007063048414       0.562410349041344        9.63932926072163     
   3.11282601822299       0.233562194711144        9.76436167611943     
   8.02594925259172        6.33076437965398        9.97931807156325     
   3.14587127540998        5.77604649227399        9.81880506552084     
  0.983150323426918        3.49113638860016        2.31353202215552     
   6.19785071240047        3.64887616601170        2.47037163888524     
   1.12242314330256        8.63068605877456        2.16858780455438     
   6.26477758670463        8.92834334686073        2.55580198680919     
  0.167379131648026        3.49466445085217        7.83899660319316     
   5.22198829715200        3.40734929128564        7.82693681681178     
  0.254280318843368        8.75583129026025        7.79362788388408     
   5.39942480108278        8.84170715944389        7.77863607901010     
   1.69692217324127       0.634820147938851        2.54870396424152     
   6.73129172353300       0.957596853247410        2.68019071991086     
   1.71298721093405        6.05939716004055        2.49793603155288     
   7.12748990782896        6.40555499062042        2.82888447674241     
  0.952884438413946       0.739591039705062        8.05455841908147     
   5.68703920228992       0.878745431088538        7.97236580649573     
  0.937680071318587        5.93446298615797        7.90853997746744     
   5.78605363732960        6.13288121504960        7.93310720178954     
  0.351558189792478       0.911251817098123        10.6070139854274     
   7.24722456176438       0.959448155189111       0.119305649986437     
  0.227323516281791        6.14176508195507        10.6666468880813     
   7.19063749757159        6.40089714366204       6.530734342907517E-002
   1.21131593880940       0.698136795156888        5.30398036070518     
   6.34304723114048       0.905341255679238        5.51497522292896     
  0.998264454755492        6.21168455849037        5.38039949803915     
   6.19116729493453        6.24120518767029        5.30408129868294     
  0.412777705693875        3.56567428471730        5.02908173764179     
   6.16550415292251        3.37660185786970        5.11731646034085     
  0.703247453165689        8.63953010780166        4.92603655925950     
   5.87645166668503        8.93858175672250        5.20201290762973     
 -5.844163035181865E-002   3.43337026546650        10.4333844513451     
   5.01677812719810        3.39953323641618        10.5016644180005     
 -0.176041085801053        8.68914225026354        10.2121877795193     
   4.99762127546905        8.71563429198689        10.5119187163847     
