test
1.0
   10.2783544385134      -2.502083239443434E-003  0.231281298244210     
  2.626352371165023E-002   10.5534066576844      -0.155811466913785     
  -1.76181403125864      -1.178918026624057E-014   10.4521705332993     
Zr O
32 64
Cartesian
   1.40738672282425       0.318328176947516        1.12808202692963     
   6.49482986006242       0.308988136080261        1.24921447763140     
   1.34487567403065        5.41787642029000       0.983452507570269     
   6.38187335054526        5.41887328962254        1.13183454521599     
  0.555737300726570       0.211879893519501        6.31585124019553     
   5.62514500390065       0.234870002342867        6.48014555198817     
  0.423171642983708        5.55245389750871        6.30457898945490     
   5.66380312225778        5.57574421722075        6.47067187272190     
   3.15641490095517        5.19304538974755        4.21192033802838     
   8.28981188793400        5.06213840228153        4.21935145284301     
   3.13638492481014        10.4125173195004        3.97044018997770     
   8.34238238074096        10.3799169768088        4.20847341171234     
   2.11177434513827        5.20381897866117        9.32988719958172     
   7.47582358412577        5.19646846458786        9.54098108399160     
   2.32569226148298        10.3692045792889        9.23314920243628     
   7.48485638014135        10.4540073672207        9.33497934152924     
   3.57412311386514        2.99087633718350        1.58232389997633     
   8.69951185994660        2.82150131958796        1.67809598414294     
   3.75625340748614        8.19393851785476        1.44109708671606     
   8.58056319086041        8.23747570641039        1.54933249004925     
   2.61339739789413        2.99654656078285        6.70738599100821     
   7.81651697150647        2.88902979322118        6.93690755115068     
   2.77652339545033        8.09745543272440        6.59970406266166     
   7.84813436451317        8.13900870538010        6.83514210919644     
  0.858041008362936        2.51298505569160        3.75436997703645     
   6.06512860918700        2.51707307054000        3.84476905301923     
  0.835666687292044        7.72308624347433        3.43530434526596     
   6.08830668413407        7.73591379532419        3.83815709031797     
 -2.674601756428016E-002   2.50373045019006        8.90369523142795     
   5.08088895374559        2.50648936259057        8.94152413813141     
  4.076555524322219E-003   7.86631264796161        8.71839013658103     
   5.06196186441998        7.74206801536227        9.17590700539887     
  0.162749184745213        1.89413803975418        1.75345124442436     
   5.22844514511577        1.78742728133496        1.83724869300035     
  0.219329615655360        7.15311402548078        1.50218985851363     
   5.39081510843410        7.06913287766272        1.67746579277646     
 -0.734770936189817        1.91733242148509        7.03798666160705     
   4.44879226490273        1.96715465723889        6.96440205521685     
 -0.789064688557544        7.27322301331085        6.74278305090792     
   4.36193946799239        6.99071337237686        7.19248224193711     
   4.26855586567375        3.50751289801902        3.63142093567996     
   9.52422086971612        3.68698423249712        3.53963608772985     
   4.39677701909060        8.70024623998014        3.38314738742048     
   9.58922813048977        9.01065729270064        3.37071080259074     
   3.49005891535619        3.62324302578111        8.65391681853354     
   8.59211070495472        3.59912823015235        8.98492492605314     
   3.41485098128314        8.73053741759397        8.49838260801113     
   8.62554768753817        8.84547873597481        8.61927615926246     
   4.74192161129626        4.36742435273819       0.916479445485831     
   9.82115354220166        4.52143053250098       0.923445024813531     
   4.97814929049977        9.70221339785970       0.621716158495589     
   9.96319892149955        9.76426529027772       0.925737531825448     
   3.80838036519751        4.47353099217141        6.24512705932849     
   9.03413029532098        4.46612677222431        6.27301613870107     
   3.89598359584886        9.75493667031020        5.97411531186075     
   9.07698364817523        9.80232054257682        6.08208729850108     
 -0.263820262942249       0.965110033525743        4.39673462351764     
   4.91720778276470       0.793280830105701        4.24067596493099     
 -0.308536969987450        6.22171626023365        4.32205579976267     
   4.91317852099517        6.18883300275377        4.50399736176280     
 -0.996145400583991       0.819095754561843        9.38330243843259     
   3.80404539277400        1.13214729881183        9.60357980335050     
  -1.03896591845484        6.26138848169749        9.43013620485431     
   3.92098888241698        6.14618970418187        9.73951301854651     
   2.03212720790126        3.97910832564192        2.52368891391119     
   7.11048972070390        3.92318427276086        2.58122586227701     
   2.07535462187472        9.31502652338764        2.38283225303351     
   7.05573360969364        9.37325977880746        2.58472120786548     
   1.03184839281631        4.04908141743790        7.72114911771782     
   6.31795489129197        4.08103847366929        7.87755790130533     
   1.22100945614673        9.25617461852011        7.60173438129782     
   6.16193300981388        9.51995564892733        7.79096487006837     
   2.57496634804110        1.22890862470115        2.75557309324274     
   7.73228994540652        1.27616149114427        2.85612025760848     
   2.54622393757275        6.55375807280809        2.57887389933750     
   7.56041722845610        6.68449311503500        2.86910040105234     
   1.60765801666344        1.35029861055309        7.87014114189812     
   6.73598390033092        1.38981131213387        8.09666337477385     
   1.53495856680913        6.68331565295668        7.94311313407614     
   6.72560319986795        6.67129873302067        8.14277581090050     
   2.79281607097570        1.48551507634971       0.137005828284670     
   8.10645811514900        1.32937885187286       0.196102573675173     
   2.91289883289506        6.82203434470582       1.384121568395754E-002
   7.95914247037744        6.68307477165227       0.394465632466924     
   2.06247818577921        1.42918464366446        5.33079667689142     
   7.08123949879969        1.40993462448629        5.52600796269553     
   2.08332177048223        6.63660485960477        5.30400646003738     
   7.15306523455956        6.52512482597060        5.46167905952260     
   1.59177873659000        4.01145040329655        5.02310327450279     
   6.79917496161233        3.87455603237948        5.28906326022203     
   1.59534407530394        9.32043907704323        4.86235072691477     
   6.79285774152570        9.24843134872036        5.14257314317116     
  0.663071226207147        3.98589614571101        10.3534818381709     
   5.82606536466203        3.96015198624129        10.4702211202843     
  0.797215668330303        9.32567329945335        10.2860623732063     
   5.82195791700788        9.24676455825263        10.4620868713595     
