test
1.0
   10.2131088750997      -2.732894802646396E-002 -0.158889693160792     
 -9.283482281521197E-014   10.2406283654761      -0.117038197532060     
  3.206990701833536E-014  4.834379725289513E-014   10.7260483943303     
Zr O
32 64
Cartesian
   2.64623093575214       0.270805669206072       0.172989778920064     
   7.94445886777671       0.199358699620375        10.5841513130754     
   2.90957893016877        5.16271379492697      -4.252743685123487E-002
   7.79500351725741        5.08072766589634        10.4543788903250     
   2.70809823419223       0.112643972360730        5.29629310231671     
   7.70935988211844       0.222237306624409        4.90720393957326     
   2.60531504136036        5.34665333878339        5.34490084942579     
   7.67516871327299        5.40761435256557        5.20672346085015     
  0.351975081973564        2.84219281564620        10.5531346266728     
   5.33163511118586        2.79107146844385        10.5690037604992     
  1.884362603283159E-002   7.78117190955489        10.6093931413236     
   5.23824752905729        7.86716374858860      -3.266090026568137E-002
  1.856208699473216E-002   2.60455034762226        5.34941447853685     
   5.07160870419010        2.85210616568068        5.37907464130330     
   10.1712824269663        7.95420108944346        5.08811804030296     
   5.11364159420760        7.90406063401031        5.22599091042053     
   10.1820346166990       7.239304662810810E-002   2.25420339874205     
   5.27354053545277       0.188196560328461        2.54891143024927     
  4.428158800559446E-002   5.46163114268253        2.43661668412785     
   4.93158569235559        5.31986190281506        2.61454362162016     
  0.215382814185566       3.373472477438304E-002   7.97525041304422     
   5.09187381227835       0.272161552163076        8.24742665636038     
  0.179496531454166        5.26342225954564        8.08033505190290     
   5.27607708818402        5.38484284363290        7.68267695030013     
   2.50161285849964        2.67143547358333        2.98665960770699     
   7.73329554289370        2.91494915727881        2.43939011943029     
   2.79804930507169        8.02358552988109        2.80633391245943     
   7.71694809488321        7.74297949795995        2.35717938893898     
   2.49313610933924        2.60518587245523        7.59912476910303     
   7.94775367458372        2.59455928567824        7.63609353200301     
   2.58685597742286        7.94530273476325        8.01588989624593     
   7.52582763589883        7.93242023552029        7.82967632814260     
   1.49180232236322        4.17478047327611       0.920834335977054     
   6.88326735009657        4.14724157270697        1.15381367393342     
   1.28380989058332        9.25087231332021       0.911528543762566     
   6.52753141278355        9.26190502442196       0.858808776639479     
   1.58156060033165        3.68727803405466        6.10845473013483     
   6.68316453336039        4.14745571311298        5.98056019369993     
   1.28975554517186        8.82895723723306        6.56220306688270     
   6.46272965666220        9.03455398575488        5.89648293822224     
   4.32907588347179        1.29929210099677       0.946661773629267     
   9.55507595984231        1.20903537398797       0.602989368061057     
   3.86740854165997        6.63835881678881        1.07063158202865     
   8.86838602211745        6.15140739282014       0.860969954687152     
   3.72250478635649        1.61681591513656        6.29339065082650     
   8.90763659635827        1.38121931395122        6.26870307760897     
   3.99069014809141        6.33896494816383        6.21070594522594     
   9.39809973918227        6.23037542476836        6.07180287126361     
   1.35622139135711        4.26628265715430        3.60036745786267     
   6.09612539443954        3.72962690048417        3.22535735732374     
   1.38007364527370        9.11054368717722        3.67572777487271     
   6.36616783459812        9.09932378081811        3.31952191908738     
   1.39714380152953        3.86202424646743        9.04627637504342     
   6.67617438397730        3.85368835190881        8.86976079155955     
   1.24925738055768        8.92220838016927        8.96599471597119     
   6.23004589934639        8.92469420676827        8.85571349274394     
   3.82186410561143        1.18986278204741        3.58667250580803     
   9.08966472736315        1.23269700787279        3.72674964141278     
   3.72668656299713        6.52343424293826        3.74788613752757     
   8.96924765988408        6.55230290878242        3.60311518164071     
   3.84675509835612        1.77072901773797        9.12005678377045     
   9.09322258934200        1.36835229359923        8.98379205731534     
   4.13648658233175        6.89796109238885        8.95659964641463     
   8.78468424698451        6.32991442356439        8.68372480611380     
   1.43163576729274        1.55087691501951        4.29541684137679     
   6.12893091993630        1.28587569934910        4.45358638303781     
   1.23464841817270        6.62145412138395        4.15828932612979     
   6.12433102812074        6.28595641198760        4.15278443027113     
   1.16733730276945        1.13820120100468        9.59550598357529     
   6.57312506540941        1.37991372140058        9.79834994920578     
   1.26915977421332        6.30934407060816        9.77768923571877     
   6.36587603401913        6.49943499269490        9.67465439813333     
   3.80904881533149        3.93980461343644        4.15688659738729     
   8.60475438227496        3.76590673992391        4.20669869617363     
   3.90665072104514        9.14175664651011        4.12317152168002     
   8.94738385299031        9.07686747903562        3.71444693954267     
   4.45089960954190        4.33113905175738        9.48590708493226     
   9.25217394449669        4.07645348390240        9.49901147124870     
   3.84201862053326        9.28854916829450        9.66749223986336     
   8.87823265674812        8.96018562549072        9.43411216441698     
   1.67711579947009        1.32457594524700        1.73026093442113     
   6.92167066894179        1.36061818932657        1.88334685118446     
   1.21304595718001        6.58432170281189        1.46007562418627     
   6.28089787103314        6.78858105509903        1.44720901849284     
   1.28028157863383        1.18160647955051        6.70394158668454     
   6.06402134170391        1.70219946937660        7.13208754409944     
   1.78414906479799        6.09443281026479        7.17160836102416     
   6.77490970833300        6.50121199013336        6.72214804542388     
   4.12264975090444        3.76583730368509        1.30387422065271     
   9.46114068876277        3.84456105526450        1.42821397658017     
   3.95444557014667        9.09384559322504        1.39495967724161     
   8.92800706395413        8.65225097064415        1.22350421570532     
   3.92067101765610        4.07927281348693        6.83322859648757     
   9.32309529722319        3.82798656459452        6.81536265171228     
   3.75654459027198        9.36753413290424        6.95953462656513     
   8.89429266227377        9.14278084560587        6.76402902704915     
