test
1.0
   10.5299963471704      -1.564534281877207E-002  0.743573097420761     
 -6.858350610564704E-012   10.6436110985549       3.413551184819708E-002
 -1.532656385352922E-012  6.463652962045657E-012   10.6209438763841     
Zr O
32 64
Cartesian
   9.65109907680850        6.75491339716267        1.01018582038727     
   3.87546114609848        5.97881608545990       0.368654369703795     
   8.86047981067209        1.06709615069527        10.9174025240437     
   4.27607512705453       0.666351582929814       0.353778952183172     
   9.39938773283922        6.26041321660509        6.00796714224805     
   3.99895942451725        6.46743271738740        5.61674831245915     
   9.37006140521833       0.692363808832329        6.31787120183104     
   4.50920273143755        1.01451992068763        5.52077148366505     
   6.56254001949057        9.10399268959829        11.0692008773880     
   1.91172507466622        8.98851854278974        10.7391345636782     
   7.03114900608923        4.09189382814335       0.771660174417912     
  0.909655038340691        3.87119923671399        10.5190576258020     
   6.68278111339970        9.29586683386231        5.89409627747651     
   1.84795996859279        9.05747072752269        5.51161355615335     
   6.70505797021073        4.05175998492925        5.70753130335372     
   1.63844330172122        3.51420456304840        5.51031108007872     
   6.76545132356126        6.33008316305375        3.36256212634237     
   1.59221428379069        6.06303449247209        2.85492467037403     
   6.57902454996975        1.24465610382944        2.99078747194434     
   1.47454884768284        1.25398749635370        2.74065554058268     
   6.89029150923237        6.44667760693880        8.53995462070145     
   1.56829076086309        6.25028566887085        8.11478415528471     
   6.67428922969852        1.33725760712445        8.28644429503867     
   1.38391029100366        1.09472149488309        7.95761324692243     
   9.36793754500907        9.46106723487981        2.99346672568152     
   3.75421849614246        8.93239254524820        2.96178240343880     
   9.33586033295920        3.34322471936878        3.27165879227129     
   3.90407769801476        3.61866164657052        3.10274888913384     
   9.55661435668015        8.74784607241427        8.66713979867227     
   4.29469999727280        9.24888335513259        8.57217745705296     
   9.27000715675046        3.72396640718858        8.47749784154248     
   3.93694054681963        3.66544262035297        8.22090236176053     
   8.36180749401334       0.354301741309817        2.07545135053421     
   2.14304528198632        3.00280136177577        9.05078526412830     
   8.15804436853017        5.20704792283806        2.06959988215670     
   2.82956152050154        7.27765571732000        1.51908040268284     
   7.48041455909451       0.137137109806400        6.96538556425569     
   2.19882171774145        7.91884762600635        3.69504359866871     
   7.60065561746280        5.09913436869400        7.23806503944715     
   2.42608427287640        4.70607123412047        7.02070651898009     
   10.4663766367260        7.21302904081921        4.75712653789772     
   4.96849128862893        7.93774458783559        4.38429267104203     
   3.16047088210272        2.23304926699999        6.70171896374978     
   5.76284760722281        2.53066488921021        1.46321034619674     
   10.1431945405400       0.141034378043309        9.54192575611308     
   5.23964579557573        7.86426901931949        9.95045984985986     
   10.2997466618956        1.99356609469150        4.54497517761476     
   2.77809310857054        2.49765985867624        4.14685530561614     
   8.42770408838066        10.0648549723499        4.66244148469814     
   1.91227003851057        10.4002525148085        6.93894749479514     
   5.52714109168535        5.07793444227564        4.55338589973565     
  0.569276994213324        4.72756490429143        3.94307325265514     
   7.96654942889511        10.1417029296411        10.0478116902583     
   2.73041387850653        10.3278760343096        9.35340786382982     
   5.97220631601725        4.86122803236373        9.42049836726275     
  0.211260324895960        8.53709109990282        9.76333641784756     
  0.423843472678320        7.63770716720752        7.58069465596040     
   5.88978053913378        7.86565823455430        7.38606365440040     
  0.422804167622395        2.56415643693827        1.37212313356389     
   5.25165154245340        2.53776358071019        4.09115546369552     
  0.581881947307028        7.93566732177633        1.47568514870585     
   5.53332857618131        7.66023869801079        1.79957500516767     
   8.17625405223234        2.27855296781433        7.37137224388474     
   7.63203507875160        2.42550459500736        9.76311952981218     
   7.42284489263561        7.40185469131635        4.65496924442179     
   3.81799798601780        9.93205447290926        4.75249049223896     
   8.33452609564733        2.74900334155692        1.38015688515693     
   3.64112258427994        1.51813319267360        2.21664993765839     
   8.38769911883904        7.29305187928706        9.42581977195248     
   2.76941227466571        7.87169292058619        9.21688457041241     
   5.90400588556960        2.49083250291308        6.75711114271580     
   4.79072170196892        2.13699668762062        9.52167932265198     
   1.25630819004751        10.6004088751783        4.35389812971470     
   6.01937072371533       0.190536020988844        4.56172430470777     
   8.57018261202977        4.58520202630757        4.99874339374510     
   2.99803635120323        5.40334516060239        3.99511970338874     
   10.4562429513674        2.75769564686278        9.67996458730958     
   5.73675429965288        10.5339528897399        9.57438957706339     
   8.67487170128447        4.77083923110890        10.4745380735322     
   2.92663750317054        4.71880292660165        9.32151939989398     
   8.34704606384126        8.52019671340520        1.44943054129786     
   3.20122236864404        9.80987872099445        1.44515355387768     
  0.455557246708265        5.48235887643221        9.52200311730073     
   2.35043379438413        4.43346187914569        1.53291133534689     
   8.15472695832446        7.63043389015703        6.88206635876068     
   3.01656626680166        7.68979519849826        6.70119643743628     
   7.80013250262542        2.46851668235235        4.06086393934312     
  0.450049805180935        2.16049005350799        6.27200326023323     
  0.391047546136246        10.4401757531085        1.93576036368247     
   5.40542936245697        10.0806590055576        1.75623421348894     
   10.2568128326330        5.10808902778902        2.23247121489904     
   4.96535599961212        5.05617685492851        1.77181206331876     
   10.1595797282661        9.38700266069231        6.69349901505611     
   5.05364948104033        10.5868592170954        7.14617858146312     
   10.5095468776187        4.95306112449484        7.30268472494879     
   4.90803099345205        4.99883781161560        6.72398472149424     
