test
1.0
   10.3206271543983       5.455285821903382E-002  0.140117611190200     
 -1.098871332404673E-002   10.4197338093858       6.519184407100662E-002
  -1.80107319531693      -7.564371812817776E-013   10.6850801758955     
Zr O
32 64
Cartesian
  0.536121353123120       0.327663737083875        2.81101995062551     
   5.64155417732629       0.386195944979530        3.11346909730773     
  0.664617197756910        5.42328833276186        2.96269863212408     
   5.68679070106887        5.44039011399708        2.89618042506841     
 -0.310791171062005        10.3998220217309        8.53550450148052     
   4.66496369181263       0.125307061903647        8.41448797087157     
 -0.347647757926139        5.41932103487943        8.43451318707797     
   4.80998380135783        5.47835731993504        8.40911279042157     
   2.32696055055298        5.02971291893740        6.27005557482124     
   7.43927696843051        5.16429098407903        6.33396502631308     
   2.36737540574271        10.3526927137182        6.02706418103885     
   7.57719477968851        10.3151048145099        6.35682152427550     
   3.52248204260861        5.04764807506746       0.941447430219313     
   8.56212140846964        5.00526221242682       0.968590455682854     
   3.55400315506753        10.2180381562675       0.990797331803176     
   8.46284733918642       0.111549959436791       0.712542503167190     
   2.82841274322732        2.96997717191846        3.46243739924444     
   7.89841756652219        2.69923141177922        3.76044350720237     
   2.76045188865794        8.18612133618956        3.52694587785415     
   8.05830248654377        8.08842836268450        3.66010594147850     
   1.85022288379497        2.59364167421340        8.82872303998372     
   7.06699221594207        2.90755256460872        8.80214895460203     
   1.87647738341818        7.92535357429981        8.91326125720695     
   7.04644524087848        8.04765129492127        9.05264861544249     
 -1.651409887030764E-002   2.34523892404305        5.76734752298776     
   5.36284318367274        2.55952412093777        5.68037106836650     
  0.276376919181682        7.65692783956744        5.73660437908322     
   5.34344947010229        7.62993827164425        5.77190795143085     
   1.04985335111476        2.52159334647151       0.354572741823637     
   6.22275093261404        2.56205718929009       0.260295081903577     
   1.04825654486272        7.62889006055311       0.444440832294919     
   6.46789931626462        7.84842499609066       0.489267113857695     
   9.60301539996795        1.72575226607138        3.96248718407338     
   4.58423618300905        2.00690752143021        3.81710840001019     
   9.56741271619433        6.95464495120206        4.03810533478119     
   4.50641906207887        7.08317497388851        3.85606470158771     
  -1.39866681155539        1.64672072766879        9.00141821612506     
   3.73355948135499        1.82363742759917        9.17382197766750     
   8.76152413584520        6.85294767411209        9.27847158004800     
   3.74742169953487        7.20695733198484        9.32499527812018     
   3.73560589629004        3.75661943267522        5.40179999218988     
   8.72804353313377        3.82397317327034        5.34680378717161     
   3.59794700022875        8.82576105350374        5.54286501787342     
   8.73838976047578        8.92157646574613        5.61251038348257     
   4.32594464593035        3.49053326453380       0.124070760480088     
   7.90313035713788        3.51287137091668        10.7573790192832     
   4.64615199706180        8.76059915701955       0.344216573477181     
   7.89084798760101        8.82467073299945        10.8607058792258     
   4.18469063469215        4.20338305999792        2.57926113236457     
   9.18600512178974        4.28825246406890        2.82354063181964     
   4.08395340861386        9.60916100625186        2.80633819854945     
   9.38413514448883        9.54855915128487        2.99147485150464     
   3.18028512831484        4.19209309841472        8.32482394707107     
   8.42473144815133        4.14046277935661        8.07257703483207     
   3.03685343413513        9.63507287063919        8.08086688870758     
   8.39331695630144        9.48986240194305        8.16635435718302     
   9.07135294737486        1.34306034735129        6.72059545072350     
   4.16252893975776       0.989212221817648        6.25264287152929     
   9.09911485957424        6.38935869196835        6.39397485658536     
   4.03727705666736        6.27879892563169        6.64082805960401     
 -8.510401206837499E-002  0.945618285977559       0.914674268864409     
   5.05261128552242        1.04029824247703        1.29719179817206     
 -0.194631914812952        6.25428241553182        1.45165290121544     
   5.08717769892501        6.11860409093953       0.999657107020139     
   1.24412272712910        3.91171605275939        4.38437611730065     
   6.20828055687071        4.04362490575308        4.38917853236163     
   1.31688566674215        9.08093862450499        4.52482008905823     
   6.40202437896188        9.33300763102334        4.64462158487887     
  0.483330111386609        3.95965199717975        9.82635939893135     
   5.62120787587088        4.00314420238400        9.86255198664078     
  0.377917558589391        9.12875732006739        10.0033150039921     
   5.40289260222611        9.28778559146414        9.90854291871787     
   1.70005982429032        1.27783859619545        4.63641086096788     
   6.86290068251373        1.28610257441033        4.95205853482683     
   1.70531937685817        6.44369614352489        4.59434127808556     
   6.63721568746012        6.53493022536944        4.92119749404219     
  0.987336846326047        1.22483056042946        10.1682461619205     
   5.97074525248599        1.49145558897325        10.3055220341369     
  0.823934282870905        6.43460417397484        10.0828886838730     
   6.02824723003712        6.61402005912351        10.1486146180642     
   2.29511078463342        1.38022080667952        2.34065407320238     
   7.31405993052988        1.44170229825070        2.31173999620706     
   2.30046272132231        6.61647119635087        1.97126221942695     
   7.25568921760756        6.67708664674703        2.13326242355536     
   1.35331207077202        1.10738367366829        7.56831621750629     
   6.46831980259905        1.31516091689208        7.65458469944780     
   1.09945888767873        6.68219907942841        7.46513086648465     
   6.41458726090453        6.63543194069931        7.69931763458759     
  0.823840355821856        3.86775038836715        7.06183632297938     
   5.97179094736674        4.02936830926502        7.28585844153333     
  0.805074963885374        9.18617569715991        7.00954343416797     
   5.92766315697588        9.10216073306922        7.40335816384592     
   1.71011890082593        3.94430892951129        1.79696883225931     
   6.85538712975114        4.00598217110007        1.88541130221201     
   1.65046324850922        9.21530436686941        1.68936272006638     
   7.12638306664574        9.30916550006075        1.78695574163293     
