test
1.0
   10.7641273774475      -3.858377459015828E-003  2.644023592298099E-003
 -6.802400422454594E-012   10.6826145087040      -0.134829388837292     
 -3.473190258506608E-013  5.456420561791202E-012   10.7183028725921     
Zr O
32 64
Cartesian
   10.2301064580093        8.29211056624296        8.90945968417518     
   6.24824208414786        8.63320966879765        9.30966364740908     
  0.236870074751351        3.42252147752260        8.87397741016006     
   5.82853753458642        2.44873367813141        8.88502969712775     
  0.709115281168416        8.92821580312838        3.19658265313717     
   5.96701374669727        8.12968485065677        3.52199961038997     
  0.601500750422379        2.89920975860911        3.61521965001223     
   6.21951714639393        2.57103026544810        3.89827245086059     
   8.76993237474635       0.572986565053321        8.74120314909966     
   3.14329826812549       0.137604852942653        8.74856058156740     
   7.94290648727852        5.44151590902880        9.25381644825583     
   2.65470716831744        5.66892996943036        9.10473933625561     
   8.37302867464513        10.5610257477767        3.74983437002743     
   3.31826162326709       3.190297611999150E-002   3.82406220638183     
   8.36091790126861        5.47757304441655        3.45540659047944     
   3.15320373204824        5.65121646810298        3.41183674033303     
   8.74267018052149        8.07933739837410       0.838184782157419     
   2.85772342445592        8.03629664465028       0.694879834659286     
   8.52561444400522        2.64331155301744       0.892854386244330     
   3.00948968989048        2.92547940850655       0.937699567365384     
   8.29450297459353        7.90726977139392        6.23273455825142     
   2.58259762390336        7.78932788403827        6.78356392315202     
   8.54181489807162        3.13596025189598        6.53903383878189     
   3.70343728215186        2.94697488985697        6.34836594271965     
  0.799241643309135       0.662697731764372        1.02997502784874     
   5.49740466683444       0.519702834464521        1.26885193961557     
  6.327684588844472E-002   5.40325471647768        1.00672174118655     
   5.34751238565219        5.69361035711711       0.845368270506391     
  0.653420194961071       0.218340901424418        6.24552704656223     
   5.67079244696305        10.4211496740065        6.36687389824942     
  0.426651878600739        5.62904919364628        5.80884887351649     
   5.54718928619395        5.33740422294559        6.29405756621211     
   9.87072443032317        1.43321689191016        10.0235656555849     
   4.66192803013002        1.40953316238811        10.2148487019840     
   9.62964912014995        6.59957467135135        10.2296272268415     
   4.19314897340842        6.93995498412572        10.1469322520776     
   10.4511226796690        1.26756208644998        4.46537287687350     
   4.96474840637540        9.57991456402434        2.41225387418367     
   9.82643990255003        6.37430366484707        4.62357794645331     
   4.50695457384913        6.56994623664032        4.67347041943637     
   2.08120219952832        9.66328603388559        2.00834458864596     
   7.46017972875275        8.97389661787855        2.28611237577564     
   4.66136861155177        3.98070834112118        7.63215471962176     
   6.32468085510906        4.63710475143026        10.2665563211646     
   1.31060665332233        9.17751304222610        7.56746020387132     
   6.49649530124322        10.2279390778502        8.22193570718359     
   1.51424251245064        3.85909324851834        1.51307075469304     
   4.75958590019338        4.09851365078700        5.06797980562543     
   10.0553031198441        1.57012448948080        1.87369166684655     
   5.16067729244471        1.25677142469034        4.90243639707802     
   6.68117388962346        6.19392883527243        2.48938812348296     
   1.63270868213433        6.75078262174920        1.76004706959366     
   10.0250038354741        2.11757805298603        7.48520330608731     
   4.84378384338609        1.41939694514662        7.46756009543717     
   6.69493242321823        7.38650383478684        7.53652476243881     
   1.44763863331194        6.26279765424792        7.48754215710321     
   1.86858262112033        9.90534155931692        4.39298604288271     
   7.03071403335702        9.31460986832171        5.02975192287357     
  0.797916316319280        4.85803340827738        10.0303683052694     
   7.57873823975935        3.64658734029390        2.26936468985425     
   2.27175642211425        10.1742739467404        10.2595730930192     
   8.35777712081412        9.23034887457318        9.58708664133498     
   10.0369967514896        3.66981673523787        5.33123198633330     
   10.1444401416121        4.37489392185604        7.62782159865478     
   9.92476594171314        9.60533957679407        2.44349108624378     
   4.43181003751980        1.70040527343951        2.17010769991279     
   9.13024224546599        3.99169748179767        10.4665836887989     
   4.46929652067631        4.49227142322270        2.59495087148862     
   9.75513798920419        9.83428325731663        7.44867829413380     
   4.18775239545139        9.20387765174397        7.89491583263498     
   7.16592659917516        4.02298710496448        4.85976198431867     
   7.28280900541037        4.68312315671358        7.77108469247063     
   1.85958571949405        1.42027303920810        2.59498376335465     
   7.02016287614506       0.861380703459595        2.51372302526645     
   9.43777181536134        6.56417371746399        2.02103195227384     
   4.14857550555487        7.07389832103986        2.34708009107653     
   1.62173906531847        1.07820688357889        7.64315085894059     
   7.57614867214066        2.20413347087283        7.95226641197987     
   9.69753834590130        6.60840290571668        7.81587431489139     
   4.03807502588322        6.42372367535529        7.37085938530846     
   10.5452243069528        9.24600726971991      -3.289332981103365E-002
   4.90807109828811        9.20366091993048        10.4216281708488     
   2.12184961939254        3.81620465151913        8.09479163014804     
   3.63543424326967        4.57844287794572       0.206399866535804     
   9.41140682322109        9.23211439973180        4.96263844576690     
   4.30618762538171        9.45590236864613        5.15614732528962     
   10.0640387003670        4.28020456432206        2.91351441153732     
   1.71890093278280        4.44397771723354        4.67622624518431     
   1.76218790894822        1.84338949554070        10.4895597683781     
   7.04295011292472        1.86362746613716        10.3711453313633     
   1.84678455817120        7.32161796484435        9.96826371641211     
   7.19313259884255        7.05371226388535        10.5609541171629     
   2.34876816182916        1.75081947550674        4.96381440527568     
   7.59856804071289        1.47772317838009        5.32784885377030     
   1.67764553423663        7.13466721446907        4.90664672266034     
   7.36794183416412        6.72347180673189        4.94479609703958     
