test
1.0
   10.4043229346632       0.345862404236467       0.191135245464637     
 -6.970656726895672E-012   10.6075918860432      -0.499006180737592     
 -1.365873756663417E-012  6.340565818222574E-012   10.6327576668061     
Zr O
32 64
Cartesian
   9.24291566176915        7.51311394416274       3.422875956415152E-003
   4.31260590759748        6.96651816149520        10.3833703266600     
   8.81705112672950        2.31151875480365        10.1653494929787     
   4.01842974641476        1.87683545684566        10.3693196619875     
   8.90920745090448        7.17444737541284        5.06018304819329     
   3.48834349651316        7.31479977950735        5.17506580088937     
   8.92231737268381        1.94172535405106        5.25979549377681     
   3.47151360318276        1.68026181352325        5.09911152853423     
   6.22958953101159        10.0652870542167        9.96753844960699     
  0.769362384105653        9.86053140173235        9.68045527992087     
   6.49540554303252        4.53376908430859        10.0998525026973     
   1.46883501946225        4.59186481906241        10.4185175562774     
   6.20895616761449        10.0875422259623        4.61411123285168     
  0.863773712328359        9.32846166546998        4.48908707983626     
   6.18542168878428        4.60450718521574        4.75437663691533     
   1.00637444524572        4.29912361921813        4.86026412106422     
   6.42399922636522        7.29861558221026        2.19701442166892     
   1.23221488234608        6.67646398712025        2.22512352182194     
   6.08293205092685        1.89189929018818        2.60874099220105     
  0.997093546131043        1.70508691417291        1.97587485415374     
   6.06552415309596        7.41099574695030        7.27145070001097     
  0.974743060361601        6.94859332504321        7.42799002494617     
   6.16489966338602        1.77955651707927        7.81068893052301     
  0.956659977064401        2.06652666148176        7.72869106892965     
   8.64306863561545        10.3131263344822        2.28859915793675     
   3.71171085395625        9.55681981955181        2.24275732611883     
   8.77345731934970        4.77582531507936        2.20104843028021     
   3.74372703415156        4.17127050019544        2.38493433770929     
   8.87885661555802        10.0275503738515        7.39188264964343     
   3.12172300658277        10.2336384506985        7.43970741586111     
   8.89904547953472        4.66916923502112        7.70477525434694     
   3.53796952483149        4.33936651820999        7.71834192771371     
   7.29794639089974       0.580233105329510        1.61875831505216     
   2.27305091306832        3.30874218255902        8.82522861440326     
   7.84467314218781        6.39556109702414        1.07735613427379     
   2.94844133385015        7.78435072950345        1.13143749817868     
   7.48278480158391       0.778262728948945        6.55411790582974     
   2.63719590190748        8.04343646019587        3.58648762785579     
   8.07367708025162        6.27111612536323        6.78166493530631     
   2.25657511295914        5.83552355755532        6.59947797285812     
  8.242009785347336E-002   7.38624167327088        3.60166095739923     
   5.29804096836658        8.68792357491133        3.53562350993783     
   2.29494077620230        3.21223016278490        5.90645494942819     
   5.18495074668773        3.03713247003863        1.32744053858457     
   9.51185181858767        9.01782071032914        9.03828324912259     
   4.67144946511590        8.62129837297783        8.60906284100135     
  0.222570817894630        2.63611145395718        4.29588277901138     
   2.70425530674117        2.53423448713603        3.19118251235021     
   7.60866456582620       0.690443784344740        4.24482496492902     
   2.09241908774577       0.794308392147523        6.67122193658461     
   4.91124795341330        5.73068909796650        3.23940671929372     
   10.0773768321544        5.46107575220195        3.52136193812417     
   7.35647176693953        1.10891993318200        9.47684028422311     
   2.28292953915972       0.845788931409732        9.57138297685697     
   5.63796850390218        6.22423902321690        9.00124216191467     
  0.356800800066553        5.65774776630312        8.88246080137167     
   10.2474081920079        8.55977977255262        6.43913415013820     
   5.13572867134953        8.26983469691378        5.59908831589015     
   10.1020058860699        3.35573939586676        1.67299115447520     
   4.79421025630666        3.20225213882696        4.17030905322684     
  0.600985315213237        8.02942610998974       0.773648917585110     
   5.25085851511627        8.81410585176752       0.814548217760544     
   7.75639700169881        3.42868307016260        5.81546524606484     
   7.58473198047818        3.43700118922920        8.51935328395498     
   8.50819153573175        9.13796041521651        4.76489940193360     
   2.39173155093251       9.758308082412012E-002   4.64880113980097     
   7.70943195338398        3.50526499639391       0.846512754615359     
   2.30607976810074        2.86487355955246       0.618852582273438     
   7.33296940766750        8.44077200092194      -0.123111102351092     
   1.92704217520391        8.66914740854934        8.45029252013690     
   4.98594394795555        3.06264369135362        6.52465401136699     
   4.90366845007036        3.30019295398190        9.24501124092121     
   10.2536421997610        10.9117572493824        3.14321830431827     
   5.34309246350220       0.437809505648174        3.46240735875612     
   7.72421782090467        6.09082075096088        3.78565255680360     
   2.48424235488113        5.45094418178298        3.83024638088793     
   10.0676552721060       0.824312525048923        8.90422994802882     
   4.75563883452798       0.446952826734213        8.79061163928229     
   8.23402477190707        5.66157968341980        9.23098049680498     
   3.25379296461514        5.76990537301185        8.91044633566488     
   7.96051908634258        8.52050312761418        1.78133775903299     
   2.10117628748645        10.2745912776670        1.26709248010971     
   10.1271892200952        3.40591032213490        9.26735234660620     
   2.88372516080741        5.40223011861165       0.992095448505884     
   7.25397096299876        8.98753270943007        6.99647832506665     
   2.32719485223000        8.68881992223674        6.09729839064229     
   7.39644892286763        3.36756088799242        3.31874419511019     
   10.2364028956533        3.52892094561858        6.91843567892487     
   9.79978458776416       0.994920969096867       0.752472847740632     
   5.08760480615642       0.733117004796958        1.02863724741966     
  0.184878774504699        5.64268322757603       0.902176325237785     
   5.25897607054523        5.82558043585444        1.06172156150959     
   9.92199728125347       0.630877736948964        6.33290897800232     
   4.98311730860686       0.757491165787003        6.16403406677177     
   10.0934149119214        5.97156951744141        6.04453103954108     
   5.42473085862400        6.04551859744510        6.13114345616918     
