test
1.0
   10.4200438478384      -0.257043385182806      -4.279398785553479E-002
 -1.715901858367559E-002   10.4697394839609       0.101797911261677     
  -1.80673055130830      -4.370824345631417E-013   10.7186431106330     
Zr O
32 64
Cartesian
  0.853692796573376        9.54857375471859        1.37196187233478     
   5.94350661553104        9.26162829333006        1.17118553619672     
  0.796320767585961        4.17251026824778        1.27228599112935     
   6.23142642363883        4.04129023496416        1.25316503321619     
  0.140566226633810        9.43115114390044        6.71583445256473     
   5.29494976976797        9.04848128782901        6.70413374221360     
  0.120093972100162        4.00070859950269        6.91810436497066     
   5.08888405599828        3.89023380276873        6.69573355722977     
   2.56538051256059        3.87999735634978        4.48391919738237     
   7.90474313015089        3.77323678196540        4.42956822019929     
   2.74881813781462        8.95118398000513        4.43582993739507     
   7.98295725568798        8.84852331225322        4.62371630266082     
   1.91115307599517        3.51082194812563        9.80506411846410     
   7.02908394244930        3.57867562461316        9.87399961298574     
   1.93321018973211        8.82487987754020        9.97087066271616     
   7.14948313084114        8.45864513649748        9.73160734799717     
   3.05145224407137        1.61454530799566        1.82045492618833     
   8.36746201491929        1.14037052580375        1.92335466582911     
   3.10695665377582        6.78117023795639        1.75099671906621     
   8.24480357217407        6.73366736074096        1.79394409195780     
   2.68842275076532        1.11085335274821        7.19408475893469     
   7.45354325853715        1.36264133494439        7.12652549985235     
   2.34970247872457        6.67948377461586        7.15639401549224     
   7.58102347855886        6.37822509826258        7.17793641248889     
  0.397367438496659        1.26535948574506        4.17014562122806     
   5.50755615461584        1.20518024661688        3.93350258878230     
  0.335665421837101        6.68579890848859        3.96237913862054     
   5.49207513879699        6.08479885646351        4.02613257005966     
 -0.617471547272276        1.01095451800079        9.26491690054446     
   5.09933014528881       0.886481139308368        9.27513675985204     
 -0.180977111672814        6.26376833968494        9.48754570002580     
   4.71678668139538        6.11795778379401        9.36053850997475     
 -0.271532762946637       0.335244159878940        2.18152385864301     
   4.99310304316985       0.209467378994385        2.18172423434362     
   10.0649849521088        5.36560558406493        1.96632930122892     
   4.74656601921084        5.45002503690636        2.01453455574884     
  -1.16338529540240       0.501139227446941        7.48485715115198     
   4.23364798880120       6.118454555234860E-003   7.65074797761440     
  -1.05515434850383        5.68139227005366        7.73307954102409     
   3.81500534317297        5.26503124639161        7.46035025234334     
   3.70859952915729        2.34947298026281        3.70455980219202     
   9.45413746537994        2.31842206201609        3.66280251152892     
   4.17345873997733        7.48052468032367        3.72105022191535     
   9.16075966362558        7.76561216860037        3.52645464462897     
   3.33391643694051        2.21305222314450        8.82596683955455     
   8.01660486236907        1.96227188646832        9.20637735101120     
   3.02025071172439        7.31836646646285        9.11097181701174     
   8.37995581626349        7.13979870478149        9.17793336720021     
   4.55305435405908        2.90204026800155       0.945804907216604     
   9.65484447721779        2.81853502243802        1.06636478024864     
   4.38606869609127        8.07321354342183        1.07398574268266     
   9.59748562313579        8.16894486793493        1.08255866271268     
   3.31212890931164        2.74553663866849        6.23262594724146     
   8.51814730493193        3.06222563194336        6.24325208182218     
   3.45023220225256        8.03813354075152        6.42110125189621     
   8.76115872631807        8.12820946251577        6.42121120901265     
 -0.734917167583298        10.2816180482006        4.96470850131320     
   4.19186014972930        10.2258711898473        4.69208262238392     
   9.57363048613256        4.87660525722469        4.83771394862037     
   4.29937611169329        4.71899983488050        4.98947602720946     
  -1.67003432331764        9.99593483728852        10.2204323363290     
   3.53417840387892        10.2002946670269        10.4182083742151     
  -1.38932942245408        4.73520539016105        10.1476463061201     
   3.40667535012638        4.78951026010374        10.1930053749810     
   1.45358151277085        2.66198427719223        2.53506722806139     
   6.97171082906527        2.56353053956287        2.61292391160483     
   1.67892094023428        8.07918454145496        2.90029741486643     
   6.70613595794386        7.46416957482351        2.78703918197295     
  0.515905432033340        2.50913272469843        8.22186260884329     
   5.77063239957088        2.36601716810605        7.82297651892560     
  0.692569154690995        7.78051121008470        8.18970543421605     
   5.94477487246875        7.42079767667975        8.02153281702296     
   1.92910137631023      -4.399838351412124E-002   3.02699932948131     
   7.35940771868524      -0.140690647589527        3.11624103001254     
   1.97715627850435        5.59502938343952        3.26265973782342     
   7.20652171191851        5.09621021510522        3.00274376606736     
   1.31362124590260      -3.365032323330459E-003   8.34640608682423     
   6.60348930706286        10.0361339321486        8.34125604259321     
   1.25472196619991        5.14225841677532        8.58302786626763     
   6.42584967869756        4.98205643303907        8.36575093399678     
   2.53335729224927      -4.062862429292140E-002  0.212906491360084     
   7.78601039865038      -0.137725582150333       0.258253023871042     
   2.65322427764701        4.99946070700812       0.609702440159151     
   7.68102474298738        4.96883631051274       0.118293439350113     
   1.67549270782779        10.3209879814683        5.68558851798452     
   6.44489691688888       0.140344863622805        5.84684025573837     
   1.87254463805346        5.01104005484716        6.04560366194364     
   6.77051867428651        5.33132934209170        5.65596653131317     
   1.06806582696003        2.64472180334104        5.59544878372119     
   6.33102103228692        2.69446287234305        5.35092196016503     
  0.972538768049072        7.75740476309303        5.56528407675399     
   6.33094142649500        7.77926003879773        5.23584198953236     
   2.12354231978773        2.25339572834537       5.330746950989419E-002
   7.33651041690937        2.42687052201367       3.816606664772379E-002
   2.03159185180626        7.50516239221641       0.220148902582917     
   6.96715877675873        7.63886322820894       9.244458638990390E-002
