test
1.0
   10.9346369196570      -0.125505692171915       4.051456369794012E-002
 -4.813367203865792E-012   10.4899819550950       0.438034362062691     
 -5.166762685436908E-012  4.290135617582443E-012   10.8298026578508     
Zr O
32 64
Cartesian
  0.433464819753730       0.396187131831363        1.21242791959443     
   5.85029126818680       0.882778365869062        1.07487941408092     
  0.486789570112794        5.80145433052825        1.32610243176399     
   5.65982427938635        5.55537300216491        1.71472858880958     
  0.486336254517911       0.276791212311429        6.45028084665832     
   5.93204981382320       0.481066505804940        7.07661088630048     
  0.642000250192198        5.31412937824570        6.91433495756800     
   6.13754398739801        5.16780544121928        6.66020455198825     
   8.86383336447577        3.48102733423038        1.24372297801349     
   3.29338389088922        2.80052968831979        1.35981957614833     
   8.44618775659618        8.05683763076760        1.96633389337531     
   3.48998734620080        8.49716127193254        1.79847521699568     
   9.19317700071662        2.58262484641117        6.58254113833744     
   3.14752955600212        2.76501040384259        6.47911915956059     
   8.35562252490967        7.85842128051638        6.91079550968513     
   3.22170174069571        8.29278445119191        7.00404488398013     
   8.87779498179739        10.2802291761356        4.91963864865187     
   3.98179455388496       0.402948747733950        4.31342316889483     
   8.85922002954839        5.23356109637999        3.99452844361963     
   3.24234973112201        5.22420165374518        4.54094068376275     
   8.76750370570662       0.636344578274414        9.41104350185202     
   2.98242682068486       0.308832233421794        9.23999318833243     
   8.75065738901789        5.97941304335494        9.95600503144493     
   3.38905032023771        6.08329112251449        9.81397952933436     
  0.941321988143787        3.20504723832713        3.24232382837906     
   6.37623423887402        2.78127170197285        3.70803800450885     
  0.722232198035965        8.83128603301034        4.11020018003736     
   5.73474453025682        8.08207154442624        4.45825758073231     
  0.939003328773839        3.09447726890753        9.75145894453458     
   6.21121240482114        3.32020352338191        9.28841988696865     
  0.772591037559557        8.06866758576148        9.48753661963032     
   5.98984299757167        8.56564126660775        10.3038397635389     
   7.27781075286735        4.25756355684978        5.24121068142167     
   2.21834670886680        6.93627282654533       0.408140403205395     
   7.66505901381580        9.91485428736895        6.50883073760160     
   4.29438949866309        1.27278712566579        2.39095262762106     
   1.73438971044105        3.93644245902080        5.11418857185553     
   4.70618965717728        4.87740442899468        8.26369893285316     
   6.77922523826594        10.0013204996272        9.27069589665947     
   1.38092273607202        9.44811166828660        7.86292693896593     
  3.601105229493125E-002   1.42128465795537        4.98107289735576     
   8.25137584670591        1.59433685588402        4.96929479324780     
   2.31044640703212        6.88484551581329        5.43989326178546     
   1.32476483461040        9.43820999834266        11.0570227811009     
   7.55287100092182        7.34294408564346        11.0498417515405     
   6.70075406116605        1.55083671778367        9.94886931479636     
   2.30617266666877        9.55062845297322        5.55411090661885     
   2.84516166679763        1.92962949175220        4.74539308936040     
   10.4725314328029        2.08435048604370        1.54973392630535     
   4.81591253490170        7.08774145517905        9.57185043910602     
   5.03422420620509        9.15893792456840        5.74404420979113     
   10.4500397736185        9.06030688497759        5.82677469501931     
   10.5490647261306        4.56464428542242        8.42875784773336     
   4.32182550160571        4.55334534839918       0.481895610455216     
   4.30384877617214        9.61627703260842        10.8338983749141     
   1.39733693686218        1.32769221066230        9.93510575688491     
   2.36201617408793        1.15096472919755        7.05015372461009     
   8.96451055647451        2.36757917348132        10.3684476578423     
   9.14878458241742        6.07217758378719        2.07363729781154     
   7.69712775857010        6.76305743074231        5.24930682471385     
   2.19929909911930        9.51600572003522        3.00002988867303     
   7.71647841096225        3.81662970845048        2.87448419569225     
   10.2088660491600        6.90645122129528        10.9404404760675     
   7.33208779284036        7.07069685548652        8.45326116958694     
   10.4487532578537        4.22360628839436        2.79847436931738     
   4.96759418399617        6.80314767656599        6.08653888764298     
   7.20438162268066        9.43000361436629        4.09207453503162     
   2.56739140919075        4.45451558863032        2.74918417840388     
   10.9329681309358        2.31003094660414        7.78686056453379     
   3.88768856529952        1.94869491440984        10.5857561403979     
   7.57270142332407        1.73565223865618        7.32687796639501     
   4.68171686053758        7.26107145296835       0.937274363518497     
   1.77532015539083        1.83028026306326        2.26935274189970     
   7.29414721632349        4.38150587308427        7.96620503016135     
   7.00384025664852        6.98193280772725        2.94468827970729     
   5.27023767974818        1.82834450467613        5.13452436761988     
   10.1824980069561        4.37047156304375       0.289840263072185     
   4.95708489234186        3.77154810797348        2.56867860637269     
  0.827519411410397        7.17098590752136        2.47482528397814     
   4.14463156584932        9.74714433192816        7.98255625871053     
   10.2349202758038        10.1810800904509        3.35012078412905     
   1.55724204638947        3.84926704200105       0.760221731429080     
   9.69905045312360      -9.908282643790950E-002  0.235813046070676     
   4.99152245792103        8.98766075000102        3.03535878282844     
   9.61204237081782       0.147849834712196        7.48962702366884     
   4.79979357949940        1.53910310058924        8.02314896977484     
   10.2059908064278        4.24067235464370        5.75743379988568     
   2.09312511784512        7.28040087507449        8.45467184013785     
   9.97139099137404        7.12181765728434        4.37592630448964     
   4.54899355299593        4.09331544767299        5.46893528733757     
   4.94444292538936        6.16306829313264        3.33502409765464     
   7.22887843964029        1.60930403036887        2.04136096061334     
   2.12572871242701        4.12851968944082        8.55087643594144     
   10.7240526828859        6.84356706173048        7.93300512449190     
   6.97246501717225        9.32242193253335        1.18889232210494     
   7.37533642964789        4.47435708011893        10.6172179630610     
