test
1.0
   10.7025890326987      -0.535262698224848       0.379066704575250     
 -6.165864269698912E-012   10.6262662972852      -0.548568963675006     
 -5.084291971244762E-013  6.133607433129498E-012   10.4628093312459     
Zr O
32 64
Cartesian
   2.26458467758784        7.71375974001293        9.08405434573919     
   7.13822925487695        8.09253079562928        9.25595486075006     
   2.34397764541643        3.07903457989724        9.56222096443719     
   7.63185533677208        2.90132583242768        9.47495521015019     
   1.72420211893110        8.10681859735595        3.70352591186161     
   7.50196144008829        8.09063908313247        3.69656002223938     
   2.15016820771742        3.18708193594878        4.21502616719429     
   7.66476184017854        2.74390531672425        4.85080943915043     
   9.99250327269646       3.827194200032277E-002   9.92285590564877     
   4.64300829699861       0.508523359286696        10.3704958396332     
   9.79190211541924        5.21970652079870        9.76926425824286     
   4.36686565162247        5.40960405742104        9.62781171410424     
   10.2960871367591      -0.192435618883574        4.66616245065546     
   4.73878569880297       0.301178770141027        4.55602918006294     
   9.59091335994790        5.54377721994262        4.22422570212086     
   4.55172680303515        5.72613439776180        4.11245217323683     
   10.1889735195224        8.35501646177587        1.31133003796138     
   4.67699307562923        8.44088023419017        1.36709803576109     
   10.2532308118949        2.63211499268681        2.04830284918923     
   4.86118043674740        3.04693250391429        2.29657202232107     
   10.1617687826961        7.90735683346792        6.75541860443808     
   5.05697586157352        8.44718457114966        6.69166637466595     
  0.361314424784943        2.78031459404331        6.90610173687107     
   5.19859918329819        2.45497266825534        7.06806691650070     
   1.78970633781956       0.731085379197520        1.46841417954448     
   7.39211122172825       0.194826143163820        1.87106364826796     
   1.80780639090764        5.61214687641438        1.39248973382980     
   6.92174463295527        5.55588745558007        1.52695142438933     
   1.90205933496577       3.383394359774109E-004   6.80045271198335     
   7.46298807095567       4.862495149116362E-002   7.09270950269401     
   2.03169722816422        5.59358809748048        6.56899877086221     
   7.06423917165918        5.20574971288875        7.29897873082274     
  0.488256629301995        1.84005924011340       0.269014966861188     
   5.51263784628167        1.81086702474998       0.735811124150228     
  0.549686264290219        6.98830399801013      -7.776611088512117E-004
   5.89665405186048        6.89858520780674       0.102259812249156     
  0.672781388135077        1.48847835613493        5.47258799262274     
   6.12445543115040        9.85328844232584        2.80562436231522     
  0.522007533970589        6.79817503806774        5.04977792338288     
   6.41981495763625        6.35106495971284        5.40710109703410     
   3.27098182938221        9.41778921985636        2.93407086669371     
   8.62159302124244        9.38286570503402        2.41151387497219     
   5.95615176954821        4.09986361727923        8.57099820678708     
   8.39347005059467        4.10950899151723       0.474485032970235     
   2.97872486380660        9.37595370764634        7.89351687795372     
   8.11048824022513        9.41442097336270        8.11710787081589     
   3.17979914637714        4.36897337472712        2.54257991162709     
   8.42503613183566        4.57748817508813        5.49273956399230     
   1.05311209372711        2.23753826381598        2.95596379868744     
   5.92011599620600        1.03466256990946        6.15279227847478     
  0.143768889261449        7.61391525451438        2.51554710341757     
   5.57791500080749        6.99889995821271        2.48295155631452     
   1.52446758157083        1.49038828323475        8.07827333829951     
   7.01434014777244        1.97273169437102        7.85280033493411     
   8.59172017014169        6.69297121618932        7.83478273516756     
   3.53229038755726        6.68890156317678        8.01891876380767     
   3.79493965342798        10.1063958465093        5.42436530145824     
   8.85287060521347        9.61107697285046        5.22188274036643     
   2.96042954251557        4.40676657392796       0.282767063155404     
   8.73329582351563        3.83593041413219        3.08026667919010     
   2.87481437708867        9.56570257613150       0.292864026963269     
   8.59428180976287        9.64709828024129       2.689726153389722E-002
   3.30028622984541        4.66007024991965        5.31915610809097     
  0.903761577732108        4.49807252101286        8.03238150600897     
  0.606383337870864        10.2192143784782        2.21663411036271     
   6.05442341945142        1.82711217638738        3.70393999091775     
  0.238903778125731        4.53391330230866      -2.429163812847182E-003
   5.88057986985090        4.54266168235494        3.07131923377937     
  3.694324705373628E-002   10.6169508766151        6.99114644433278     
   5.97278261814580        9.39774461155807        8.25378573265356     
  0.973047961688772        4.06960726402665        5.67880442035059     
   8.95898714778402        4.17915658941469        8.23730546941145     
   3.59095800380622        1.44842279813485        2.91080357525027     
   8.91177528641499        1.00759741078210        3.24403683664643     
   2.85140388781377        6.69395477323861        2.82392267353784     
   8.15236781713509        6.39183757409667        2.96346889502022     
   4.14883009980959        1.29557215278553        8.70158944334916     
   9.59125873333710        1.82454406913867        8.89092979802431     
   1.24842605456730        7.37503009569421        7.37526350172577     
   5.98336379951192        6.78639258570094        8.18421236378780     
  0.570409198524555        9.96694327798013      -0.401936348726396     
   6.30081175630696        9.24119154167212       0.175269850911702     
   3.09591284671176        4.28356172272425        8.16583116469983     
   5.43482588748982        4.18882563297546       0.557058885800479     
  0.500996740794405        9.45644671731719        5.12783193935351     
   6.47215879777575        9.09393770658096        5.61148457342157     
  0.494175738593766        4.76874016404905        2.99051315284031     
   6.35414668062168        3.64954457200981        6.00455050763449     
   3.08199316351286        1.72883847965350       0.411048085238347     
   8.40652845190012        1.66457042031645       0.929575344950610     
   3.45997723197972        6.72026952161019       0.229215751276878     
   8.74994524393872        7.04166841118103       0.447727836301627     
   3.39987989928754        2.04127990100107        5.41271916069798     
   9.02203068393148        1.75508152300635        5.89575999237332     
   3.71000036407014        7.18048377172190        5.31119945102932     
   9.00229407926063        7.32447640792697        5.12608587598081     
