test
1.0
   10.6253675944292       2.876386884161237E-002  0.269958770897356     
 -6.212538684637786E-012   10.5952658856647       1.290361190841404E-002
 -5.364905330801076E-013  6.154409186921757E-012   10.5044154923716     
Zr O
32 64
Cartesian
   2.04530576034397        8.64561288182674        9.76533588950724     
   7.40067330931289        8.77128241097046        9.48491162854066     
   2.25324486542752        3.42951979052102        9.77848382733472     
   7.36826482913178        3.31564616977746        9.42225151720358     
   2.01021931171551        8.43649231430562        4.17292783000964     
   6.64210872932023        8.74310199801764        4.74212882434817     
   1.62610502640791        3.72272606942698        4.49499642302051     
   7.89246877836112        3.30596049635055        4.18923070108950     
   10.3592824693752       0.866232882647683        10.0556556777851     
   4.86127263194590       0.776216627697031        10.1880525678266     
   9.82352815090960        5.82366031448341        9.44018322298079     
   5.07923427904067        6.30136871539728        10.1467455659373     
   9.72819472468683       0.352118335436644        4.50852153563346     
   4.56652313024934       0.949780322869327        4.28100600992852     
   9.87075392091567        6.22490882144261        4.88011967974776     
   4.31708376556442        5.64375324300813        4.47538902507035     
   9.57174182109198        8.30860174420323        1.73676111279526     
   4.68695810160289        8.56483071050142        1.84380960394811     
   10.0621463428617        3.49481558888539        1.70860509054501     
   4.79400999901015        3.39638742966925        1.69092350645125     
   9.91369034300636        9.11867822882244        7.12808418645407     
   4.15876232000716        8.98796711288755        7.12357976443281     
   10.0232938813568        3.11028986034018        7.40234560473411     
   4.41695388855526        3.40203374822329        7.13124557059369     
   2.03788487947037       0.947537471982928        1.70864450024222     
   7.77708086901885       0.923024227209829        1.57765756526562     
   1.97849530479765        5.96126000253483        1.61286545199598     
   7.55600205816636        5.88117005624601        2.00807104364943     
   2.03036813021698       0.795590820013509        6.72955429832620     
   7.06917065048951        1.08063820178448        7.14470056276960     
   2.01644089878155        6.61139087241692        6.93249810923490     
   6.98569628348175        6.23835585641292        6.87040402121321     
  0.798523599999591        2.02518149356595       0.409082893172886     
   5.99325506599036        2.50947336344329       0.333974396771282     
  0.312271169127551        7.36676143826551       0.377762417594107     
   5.95280149599642        7.95363745714605       0.472562897511363     
  0.892480836067421        2.20594450112524        5.72901042972952     
   6.37085671678007        9.22807101061055        2.96215122010602     
  0.590292162123981        7.54850021910642        5.66707156996870     
   5.93759196470381        6.95537374874301        5.35082741508603     
   3.80514168081286        9.53823827976004        3.42856564685780     
   9.33218881977787        10.2569864569938        2.69548747350761     
   6.42029367207135        5.31710014134647        8.48542002790367     
   9.19548292654968        4.89328541530855       0.604541173682863     
   2.85868365342602        9.88382202168309        8.44028913981933     
   8.06248253150428        9.99921682056492        7.73316246305374     
   3.46445943649727        4.12691996466831        3.46996096370684     
   8.30552809990834        5.29203666371792        5.91844369572190     
   1.01291526542644        2.60938621680017        2.94596263287018     
   5.96575852364275        1.70753789523935        5.61252395643943     
  7.722509391091927E-002   8.09833946196067        3.16357304841122     
   5.17505264772323        6.97521414324133        3.01137427842927     
  0.318052403664261        2.82325400716383        8.82629622078898     
   5.98826442711826        2.37878861033545        8.34354278296197     
   8.66980588665595        7.12187418438982        8.31054049506547     
   3.10945453317675        7.29245185168405        8.35419937561896     
   2.86932805626038        10.3334949640748        5.53640603528700     
   8.17239119486278        10.2668782041004        5.08360602676575     
   3.70006036370130        4.75051873137396       0.809321799726816     
   9.11989283169904        4.76362540990820        3.43851342126169     
   3.81782856982793        10.3126038686425       0.789957354424418     
   9.06317218216722        9.80881811334592        10.6353913124130     
   2.85258226560245        4.66971080303297        6.04201165280058     
  0.906469261166722        6.23231660270134        8.71788954451598     
   1.66501959148243        10.3287501936376        3.10826320269029     
   6.61752911460513        2.03195179419236        2.84841401895671     
   1.03530731082426        4.59343709670921       0.705283266077096     
   6.49125613009636        4.46701070218916        3.16347900641229     
  0.174044104508630       0.811718179586940        7.69078900953253     
   5.82235968812019        10.2881982024962        8.78945469153484     
   10.4640756014764        5.02279644008840        6.57665980517002     
   8.88879026249790        4.45947598547648        8.33024875474258     
   3.91037272016869        1.75803179238671        2.49350686806494     
   9.10959358349607        2.22892370999956        3.14922454337535     
   2.54822372522302        6.87638007472156        3.18662767652250     
   8.34462067688357        7.40378512765740        3.15364088599586     
   2.70879258768616        2.30056729269922        8.01946292867494     
   8.34260478584479        1.78781335306380        8.43101108152210     
  0.156096824217135        8.49444301204590        8.69176892529289     
   5.94099534862134        7.86329770851437        8.07753780015278     
   1.43253315778401        10.5613783725453        10.3596413030754     
   6.31505019319187        10.4400182387330       0.880879798519089     
   3.91921526484432        4.73619955847442        8.63838956526485     
   6.33673984399465        5.21543432911192       0.635482587736003     
  0.606133490616375        9.86606295134151        5.30829361473795     
   5.28228557733096        9.75580817744540        5.55590615946343     
  0.817943926947579        5.20601686806143        3.72031125917007     
   5.43118651956707        4.76332679398108        5.89360685911160     
   3.34695331995708        2.17956581923845       0.141802011473602     
   8.68375146682037        2.18495921298807       0.367681023501909     
   3.14854154552557        7.44992017058717       0.807677502852296     
   8.32641911878739        7.36122029552616       0.280594221444699     
   3.46351338303675        2.16535515524384        5.33834629229780     
   8.54014155494391        2.19483839537466        6.04604119099995     
   3.50343115290076        7.51945148801867        5.69521818720675     
   8.81480736572008        7.90229058376015        5.67929433789358     
