test
1.0
   10.6347422880706      -0.253919450796873       0.100291203918639     
 -6.949946371012089E-012   10.4416915613552      -0.148362743376691     
 -1.481075855808321E-012  6.419259607840252E-012   10.4925852383480     
Zr O
32 64
Cartesian
   9.37701392463802        6.23992446288877        9.83699681447016     
   3.95245550552044        6.18950372706280        10.2232284003418     
   9.35694123665459       0.970012263153494        10.0327702350689     
   4.26939192847859        1.16804027980431       0.118061613770251     
   9.25236596681238        5.95907677327674        4.56380825973510     
   3.71204963243141        6.64981177257351        4.41012231882544     
   8.89629052883131        1.08039450696233        5.21374650656304     
   3.78617416810462       0.689157297862885        5.00726083332908     
   6.77697786661960        9.35175183744273        10.4144719059080     
  0.969534269759754        8.67019988850641        10.0323777936325     
   6.72318371809171        3.97358808093257        10.2588320953550     
   1.58017854765685        3.49705402959446        9.92075641981782     
   6.43262252227377        8.62525865963697        4.73031766131273     
   1.26069068807228        8.81269328470343        4.73797290128882     
   6.11505254175389        3.95085016021767        4.80462648669516     
   1.16480204598337        3.47600337701354        5.28485796710062     
   6.85377512131703        6.34732562839034        2.26018023717853     
  0.836582513024621        5.98827345200515        2.02037573243960     
   6.80872104846751        1.03254347622653        3.02804146185331     
  0.991693464002801        1.00485454989988        2.62998190164209     
   6.41207753854512        6.57447045995497        7.52880192822486     
   1.51983917245563        5.61259894378292        7.27153444315246     
   6.37199295171719       0.642209351780868        7.65957222445710     
   1.31596186238202       0.847074349954480        7.87016539732227     
   9.48584788269845        8.66874653707435        2.37047264315036     
   4.02489387220865        8.98769694375356        2.01495251989659     
   9.01489095926904        3.42920387540658        2.57160863201342     
   3.56665552774333        3.98841373516471        2.38392905381337     
   9.00948941998952        8.64508183535298        7.18191763601890     
   3.65485276704453        9.09527649449690        7.75632247160359     
   9.03991273728704        3.60626716458333        7.77538026712473     
   4.22472946159773        3.47708149117537        7.58701256505629     
   8.45336480952732        10.1782359697769        1.15008142152430     
   3.39330192781929        2.37909670531164        9.04771017647417     
   8.04064551574551        5.48006682995741       0.773885730052729     
   2.61097032296520        7.52254756519232       0.506726805324977     
   7.92496701458445        10.1438585399206        6.31142791392215     
   2.89800890180676        8.15682789033026        3.36662707748235     
   8.45911573938833        4.11638353613964        5.45124312751553     
   2.80078306197062        4.91625051591183        5.58795189085215     
   10.5875520731460        7.17156065452254        3.42632447321576     
   5.34850444249277        7.45012985829816        3.20437337504020     
   2.60795063652766        2.58905518042924        6.75730736367227     
   4.34806009139046        2.71568979378561        1.16201208197634     
   9.95066413852919        8.20153673990646        9.06496036935581     
   4.22822519706744        7.08966197124968        8.08032637889717     
  3.458233274868584E-002   2.40310662747755        3.70996223465666     
   2.62278340764918        2.68114957663536        3.65665798008605     
   7.64349994344143        10.0479359520701        3.62996121364768     
   2.36389735459737        10.0005395771730        6.27780229366655     
   5.14077395849969        5.17130713258325        3.85634663188870     
   10.4021148045550        4.77089070065209        3.39551200743082     
   7.81929219302437      -0.102064351396655        9.26007673346703     
   2.92669500297881       0.127075779637472        9.33844989092571     
   5.53622976299678        5.07518722143051        9.16883021393021     
  0.256908504836010        5.15646788626803        8.46791258712539     
   10.1688262241349        7.39953915065261        5.98787493976501     
   5.58816979828439        7.19200010601477        5.77579603297849     
   9.40527254782975        1.99340893978971        1.22281374229275     
   5.02208603020304        2.12534294451384        3.93648597588489     
   10.4697020922731        7.34450605167413        1.04385266675880     
   4.88718436539345        8.12625884025467       0.283563163875846     
   7.90117912758024        2.03235450766777        7.14576350509420     
   8.55908482673713        3.27804570553793        9.62350915208618     
   7.92485378374467        7.49080887829506        3.87522048121299     
   2.15054363458891       0.123056883720834        3.99840114003885     
   6.74008780603636        3.31712075697411        2.00789286750887     
   1.98802341150604        2.57333774102742        1.25135490772920     
   7.59752606472943        7.87920639225019        8.58678428525617     
   1.83047069287773        8.61473022879095        8.16928437344714     
   4.90597001792799        1.65175954675430        6.74400195485982     
   6.07936514492854        2.19956021991575        9.40129297552045     
   10.3306333995121        10.0183088440532        3.69648348056599     
   5.18596710147061        9.97933765721182        3.61185774909644     
   7.78712488476399        4.98543760778795        3.25432211027308     
   2.51287565263211        5.49302272641887        3.14539607776977     
  0.274949502925659       0.117187632942934        9.50890261346890     
   5.30564370046354        9.88474046633235        8.93947476771341     
   7.82889578264876        4.97319311838317        8.41212889115151     
   2.59338504046609        4.97501069149372        8.85723062728907     
   7.72139812142628        7.81628411327705        1.17856782485172     
   3.35388084828899       0.452299916393407        1.86481444401577     
  0.462056910470135        2.48833518165304        8.98905259486279     
   2.12483211151205        4.98021261980262        1.01643579646090     
   7.85356360617168        6.95226472274620        6.22085018810592     
   2.23546313585669        7.33158708235473        5.78874793181304     
   7.87785417888597        2.21682186455829        4.00986986572728     
   10.3607664606063        2.38024168643218        6.45121211270003     
  0.757762924488056        9.70838430771776        1.47273152366397     
   5.67454179613985      -2.289690526783919E-002   1.17689506788950     
   10.1990592408303        4.86465391871730       0.522340615026435     
   4.90777790263028        5.33945529596358        1.25305377099726     
   10.5314390862122        10.1494382380818        6.83834781703472     
   5.39890997295371        9.75382218239095        6.23581907400062     
  0.180514423557620        5.20442382754441        5.92216153107697     
   5.49321812540240        4.30211899181191        6.50971705366749     
