test
1.0
   10.4202223145992       4.109581212295948E-002  0.300591008452710     
 -7.409487216685498E-013   10.1507774175317       0.121839939465634     
 -1.596189104152748E-013  1.090320327262310E-013   10.7583834936887     
Zr O
32 64
Cartesian
   2.94309539481252        10.0233162123465       0.770325278169018     
   7.78013194097563        9.94041449693757       0.713993180760585     
   2.75735299926697        4.96544688683368       0.485341103719742     
   7.84643209615444        4.97420172825204       0.765333386699782     
   2.84798483549630       0.254108124300180        6.14205536538198     
   7.93350030318749       8.094208840574564E-002   6.29228048515439     
   2.82893357168699        5.17785042139768        6.15073513700443     
   7.84849021959856        5.24906383879916        6.08903674606633     
   10.3095201321295        2.44048668026695        1.09367081200443     
   5.30268890176046        2.67644240335082       0.734494006772374     
  0.109234270119085        7.56263984765352       0.591201066225275     
   5.46864516529856        7.52906433454803       0.594697492877557     
   10.2737690898340        2.48679197874760        6.19126716825258     
   5.33599206866626        2.78875724507797        6.05236043780723     
  0.226082068058872        7.60579543825366        6.21308452278141     
   5.50090748403782        7.79578284822318        6.29368902871735     
   10.3630170203695        10.0503758512301        3.53731006244954     
   5.17378217902372        10.0232625645625        3.46322306798676     
  0.218789508076846        5.04621985179162        3.37810490842842     
   5.04448228653207        4.93720308881857        3.18636965187074     
  0.230695351691838        10.0798255552585        8.92573980485692     
   5.56385229446143       0.118921578891804        8.78640676718414     
  0.235333318149332        4.80013623722705        8.79808895306451     
   5.43935004684609        5.09495320572417        8.61679627322856     
   2.66777124572575        2.36650753644125        3.53497580295418     
   7.77139599932356        2.36226469502159        3.75622750119996     
   2.67409253127934        7.52949508573809        3.61399054325290     
   8.09181653778049        7.12023817694075        3.37830327040143     
   2.90203253671444        2.43202444710372        8.81160739036152     
   8.07984989673838        2.48375431066593        9.00087196351785     
   2.74854937094389        7.51973601404695        8.54607668545440     
   8.02775779092835        7.46529777020438        8.79578123763659     
   1.27744787827140        3.70447662270512        1.53279001090303     
   6.45873954474196        3.95878424373157        1.76513977778134     
   1.34297842811811        8.90776263824774        1.58992793720892     
   6.46866018569398        9.05789692964682        1.62025194565698     
   1.50641185975140        3.63729880411379        6.98149072314731     
   6.59570315879014        3.94360201239026        7.10359465940046     
   1.68023390965219        8.86755451775249        7.46961827551600     
   6.84986190893238        9.10673641986041        7.57379908284147     
   4.09476133547773        1.24132730258137        1.94217180694061     
   8.97492983265343        1.06522246929614        2.00672710251782     
   3.84912612588292        6.22650436526519        1.45288852787035     
   9.13519928976861        5.99587707320939        2.00674299065661     
   4.13868531435421        1.18366232448260        7.18800522303942     
   9.47564249588957        1.07880666777333        7.36944835363308     
   4.29864921343523        6.42338093360151        7.02664075172874     
   9.33270225421640        6.26985490156829        7.08023125975753     
   1.60179999477868        3.98448639869080        4.32242683504680     
   6.76252237156165        3.87166316660897        4.46864361394352     
   1.34097705896351        9.28120551923734        4.48858399101881     
   6.19579009750840        8.88452715109324        4.76178749424599     
   1.44217109272527        3.50818610597001        9.58228052749900     
   6.52892859036733        3.92424031789312        9.90017203165737     
   1.46566591566803        8.54205517180696        9.73819691732073     
   6.62030743789226        8.85824723335445        9.99441332732214     
   3.98009138551158        1.29372805619991        4.52032264751177     
   9.22441990271344        1.25517634632671        4.56011193952642     
   3.98654289461264        6.41464452347296        4.48251251264722     
   9.04048037902331        5.97335678712874        4.64052124339806     
   4.17517339173637        1.27881971655655        10.0792561798912     
   9.12559345312581        1.23897267076480        10.0506829629846     
   3.75164009329604        5.82614894665933        9.53351625160429     
   9.10625166306527        6.23338878058325        10.0641797152090     
   1.56292421710744        1.49371362484441        5.10076797851313     
   6.71264370872818        1.17293631510269        5.30125966267968     
   1.53668151647049        6.46774519359132        5.08316576435595     
   6.41984103330906        6.32382805110184        5.07283503409352     
   1.07081408785993       0.910046765602357        10.5404433732006     
   6.71103024153168        1.21588578650612        10.3645183275103     
   1.21814220355185        5.96905717214893        10.4641301328551     
   6.36820276109785        6.07234022044815        10.4890131576494     
   4.03677386291226        3.83183712338958        4.93830378118651     
   9.24420462427088        3.75742494059203        5.30771870515524     
   3.66802952779121        8.70597442001369        5.58467217091783     
   9.45547976882889        8.77542898439983        5.35504210249149     
   4.26652736812212        3.64815528599218        10.2254804399522     
   9.34594671731472        3.73093899439296        10.6135003901788     
   4.12766494845811        8.85523514133541        10.5182516877176     
   9.32422818043084        8.83697896520660        10.7488158040042     
   1.09563004170114        1.39795585561309        2.56316541687620     
   6.48710455743689        1.46893536860779        2.65170369470978     
   1.17493445922108        6.46653405716226        2.36558498337401     
   6.43855926130133        6.55654536103843        2.24030223755796     
   1.66719315216552        1.04493013696928        8.04869657878916     
   6.85493995240766        1.38695272126438        7.79630736050512     
   1.44764790453107        6.14409809816522        7.80864891168880     
   6.40740993935619        6.67271657852984        7.92751366167609     
   3.88286051744519        3.65481082297612        2.28579154789382     
   9.17499585727144        3.66195247338928        2.64377298596294     
   3.73527769556582        9.01199730776295        2.41663063925882     
   8.91056467907713        8.63257720107225        2.60828502318262     
   4.17647113864417        3.73946596972304        7.48961442767434     
   9.10698791054766        3.86799864588310        8.05303892982942     
   4.31009247624566        9.07381376168017        7.99071953968597     
   9.28366702279673        8.63752025770329        7.89142377338218     
