test
1.0
   10.4000883207104      -3.889208253015026E-002 -0.356550134185725     
 -7.067295497286151E-013   10.3608170531365      -0.186339993021950     
  2.215942914865209E-013 -5.164053396250986E-014   10.5585542114051     
Zr O
32 64
Cartesian
   3.78489672533698        7.43185511912810       0.345565540214210     
   9.22108093857192        7.49844438501908       0.804925268951851     
   3.67629147133084        2.40763483607719       0.500416818790237     
   9.01819927859235        2.43536918954327       0.679807943402359     
   3.90541529717899        7.42883067817165        6.18272589021254     
   9.24776732988152        7.40730198065133        5.76011942405808     
   3.97650648097846        2.29344105649762        6.06916246540314     
   9.01122955157320        2.23195084365409        5.94658043357325     
   1.38917584803071       0.182254449745560       0.610288806269060     
   6.48291900402983        10.0712107901722       0.679850138288195     
   1.00769864337648        4.98553527525519        1.05304169666719     
   6.27264818802413        4.96984018439635       0.627225730824200     
   1.39223358272181        10.0989688766130        6.02237031321584     
   6.43970905791521        9.86001386463874        5.58587846184446     
   1.28979806053566        5.12730752864463        6.11551176680870     
   6.49210718323082        4.92963516098008        6.18497450135332     
   1.62652988980392        7.64159158146004        3.69956897611648     
   6.48619597200480        7.59773535046389        2.92105335335425     
   1.36234310586789        2.34411646877120        3.78839540789319     
   6.35942470041751        2.20068234134173        3.63224633906552     
   1.39141872132851        7.68505248795358        8.35674040463826     
   6.75611445621680        7.59878274624087        8.59019274621099     
   1.24314692634712        2.44372424538663        8.77812984918952     
   6.68627082028482        2.13965432516199        8.86315124915942     
   3.62801466233440        10.0025970225987        2.87942984162686     
   9.19086402514790        10.0968980590743        2.96993135593000     
   3.75950234194695        5.03490550092542        3.01328755680037     
   8.71512086560390        4.88344197978309        3.36840867522374     
   4.04877962899547        10.3028212508497        8.46700211590189     
   9.24100671197754        10.0266961426682        8.28952619190502     
   4.08499447113479        4.92481697007024        8.59950385103121     
   8.94543064304739        5.07893172141923        8.60899410351542     
   2.84898649550907        1.24631226641359        1.89674037101148     
   8.01679091954546        1.24340617127451        2.43451273884424     
   2.54775747252311        6.11536690357042        1.90049464129732     
   7.68742062093469        6.19449232755198        1.84240209559173     
   2.97924089339541       0.597104559835607        7.18936447630387     
   7.82847485235646        1.13691551583631        7.41594839606790     
   2.57114181663528        6.00227191166901        7.35582680286426     
   7.99879495218800        6.36722482586705        6.98636455248649     
   4.98269400786633        8.97367369041960        1.55437057968309     
   10.0345783020754        9.04588728103266        1.41649076531742     
   4.51379344520926        3.75534741882298        1.74469530945860     
   9.88758427287567        4.09793057649906        1.57392589403885     
   5.14067907075872        9.04141456011137        7.02948512796108     
   10.1447044369903        8.63345796922169        6.80886777263208     
   4.97427677895736        3.98350341131878        6.63239864683747     
   10.2252147582913        3.73043415392862        7.00916747902441     
   2.62306008897428        1.04851461340853        4.76464479752274     
   7.80621979960995        1.01300247171535        4.90652801993377     
   2.86868664474702        6.34021070652364        4.83239744608490     
   7.65632440184776        6.54890586470588        4.44044269125195     
   2.57372656658218       0.899642065274357        9.75538351682545     
   7.86511942757538       0.654620819847308        10.0609457308426     
   2.72609638568240        5.82263064910560        9.80801381131485     
   7.20348416610577        5.81069398691463        9.82883582102603     
   5.30709362744205        8.47348008681027        4.49450223483596     
  2.693237147519733E-002   8.83196040518337        4.50431138061848     
   4.53104608488034        3.10526711372956        4.26529141031644     
   10.2038906087776        3.39625487536504        4.07611570676986     
   6.12409524983139        9.25505833609942        9.50328526681990     
  0.535150370298874        9.09138282893599        9.48576599502537     
   4.92124650707765        3.91449990614810        9.95162416828615     
   9.97740443566251        3.68800796689702        9.34215810895599     
   2.72819773451026        9.05294980517779        4.42472737165845     
   8.19607202641977        8.87704380820310        4.61047564285642     
   2.32830727716209        3.30140883993118        5.58852719298725     
   7.62366975688071        3.50059000698795        4.90401252646756     
   3.10332028185231        8.63748724936188        9.48774188422241     
   8.42461858273625        8.53835612648075        9.69643851041369     
   2.02874554687164        3.22205337204946       9.963278297782334E-002
   7.38434336177101        3.18070747770669      -0.138744723942576     
   5.27856853650047       0.931155962107926        5.08841102880097     
   10.3632937466663       0.947758980234463        4.89055305162079     
   5.32220903227514        5.59803381098827        4.39983377428240     
  0.343015291819909        6.64447278022712        5.08940899644713     
   5.15724738937688        1.00099997373297        10.2879008543359     
   10.2460265013471        1.33069638701490        9.91154763716130     
   5.45564859968202        6.71827744938179        9.90868892584685     
  1.210507197522163E-002   6.38163464229977      -4.701333302777008E-002
   2.32812180773716        8.94193768874804        1.75460613121081     
   7.54968982853874        9.04602068103333        2.04555236043779     
   2.10516045404695        3.98110447114236        3.05254803086217     
   7.13566510374161        3.79407682465445        2.32596760685965     
   2.34963902568208        8.62972668539857        6.90367998976012     
   7.75834697299896        8.77598570310806        7.16643004070206     
   2.83433534661852        3.19592601370005        7.81700260538668     
   7.52445722272571        3.62767461602102        7.51176746312168     
   5.63774336526657       0.523342512876791        2.57149567652111     
  0.334394709022621        1.50211129045248        2.04762494719609     
   5.11631661505629        6.25642142729682        1.75272517029424     
   10.3516286638309        6.35330474615308        2.19839850658243     
   5.17360746604699        1.35684176793740        7.90563338091284     
  0.538112648169742       0.820663982771909        7.89160303532706     
   5.32290343489553        6.31036159141114        7.35544388100887     
  0.173432381456936        6.23968674003410        7.66269981608967     
