test
1.0
   10.6602917929927       0.151125085454737       0.352969222448589     
 -6.813294151175111E-012   10.6425339753981      -0.170974224850164     
 -2.959985250807000E-012  5.449470005804296E-012   10.6797827333940     
Zr O
32 64
Cartesian
  0.724609776919469        9.06839596701465        10.5255131112317     
   5.54941801183964        9.01226694259160        10.6748518706454     
  0.605854498083017        3.89270917149396       0.137116184434188     
   5.92923997148072        4.21776152592605       0.830555947302578     
  0.686291850710660        9.47874161785407        5.26471497389287     
   5.89846743141664        9.48129207840871        5.29178108064600     
  0.304826676469525        3.87290206865818        5.95158272499029     
   6.07572708429847        4.61533965152009        5.32951048625620     
   8.32362276352323        1.33868926053686       0.729500284705280     
   3.15856977889491        1.15580069591474       0.671932124885333     
   8.45761681740572        6.90540124138741       0.446088547290248     
   3.53271420732770        6.49326536198882        10.4533406429007     
   8.38777470459274        1.57801717919940        6.27568087288825     
   3.33944242578047        1.66220512144989        5.99012742421095     
   8.56951828220213        6.88556209645672        5.30464938665697     
   3.30765871444054        6.87106198258199        5.55381221601107     
   8.54351209984221        9.33280354669508        3.04140209800659     
   3.15787519785778        9.48706571743690        3.16552459348423     
   8.94403368122486        3.94526731603951        3.59053380531802     
   3.05992686620302        3.93884098776058        3.12655317591318     
   8.24283917990753        9.36294182114246        7.93535529986500     
   3.35876583454242        9.78056323677487        8.29923570941772     
   8.38921386886497        3.80541461548216        8.70190844849512     
   3.22282372933759        3.87090820533828        8.64163519186349     
  0.395071535800580       0.925558234198158        2.76726117131376     
   5.71984428112107        1.49426453909840        3.47099972892194     
  0.209308341005565        6.49823906737519        2.04893897181295     
   5.92377633050458        6.79560812790484        2.52117541772274     
  0.557895726941516        1.14093381096841        8.45434135732087     
   5.88438137603862        1.29633768658910        8.80028158924817     
  0.127059363643478        6.54843709486788        8.21459693648771     
   6.31746844782708        6.63081241853744        8.18309967940638     
   6.67437001109897        2.63771715350681        2.15212971665788     
   4.90645526946253        5.01900803478491        9.78763682469624     
   9.74478809258759        7.84046862887715        1.54003970603557     
   4.75257348930649       0.416472273936084        2.07270146398421     
   1.76083241586863        2.70159350468811        6.51133767420218     
   4.90378680370511        2.92858104567439        4.71709780821455     
   6.96220147932721        8.08710311133767        6.72317368170929     
   3.91797778639218        8.66827307987958        6.90393317086094     
   1.98387714372405        10.6597992183735        3.99462384177849     
   6.90005901694579       0.399878802338015        4.70154687625207     
   5.13662531064739        6.20392797355838        6.26358206062591     
   5.72677639545966        6.67083994461973       0.299599490406403     
   9.81705347491310        3.20205725563435        10.1684100944652     
   7.46843819076125        10.6257508931334        10.0692682218572     
   2.35688868213331        5.30656002498380        4.93073262013306     
   4.77752071269215        8.24568022114673        4.09697606333738     
   10.2255693340438        2.95050611613607        4.89036422377217     
   4.56696401649590        3.57153793537744        7.12901249093020     
   7.27388693863547        8.19093386281289        4.26818862578018     
   2.25293603427487        8.20891411286063        4.44394574560767     
   9.78523525658613        2.39004902524268        7.15829720774997     
   4.06163011540444        2.30297795319612        9.18313417301814     
   7.16597867802755        8.05804118952566        9.30478761837154     
   1.93141430888236       0.103668915488751        9.62889881495524     
   1.46978290872374       3.723521378168342E-002   6.96600791771360     
   9.83698308500527        4.92797516709021        7.69077046104278     
   9.42108773970162        5.43313212946929        1.94376446584274     
   6.89355106683692        5.61902454187285        3.79759274856775     
   2.15523464133302        10.1560709374536        1.32034598728066     
   7.25615801616704        10.7416249503886        2.32844107183784     
   9.20119473543941        7.54305335785773        7.02433008362677     
   10.5480984140511        5.48882871378890        10.4273189033645     
   9.85501933208972        10.5685392700644        1.66960820826351     
   4.50948823010280        5.66266827809225        2.16144622949841     
   7.24509870089734        5.39402323646187        1.60519042478349     
   1.22391300304347        4.77648018350590        2.31271042018532     
   9.45918966085706        10.4620077385232        6.93433721122832     
   4.71240265192206        10.5767669825270        9.75460525144665     
   7.09290398063307       0.251219186411262        7.26338172500807     
   7.88157337654162        5.45734854226230        9.54453489164066     
   2.78870041826208        2.22949924075925        4.12567120980056     
   7.69539022529092        3.28266768465243        5.00156791654004     
   9.85318342854092        8.18739822081159        4.57971108850095     
   4.51201460566796       0.129161790528574        4.83630335793026     
   2.08948960297928        5.23676010839048        10.2349301083813     
   6.95717853981507        2.93479317626755        10.2625116145342     
   9.93046081032898        8.11240748914389        9.56290007880301     
   4.79213088312000        7.64932100424211        9.17635567733463     
   9.93251399424804       0.341766651479858        9.85298688362010     
   1.39809105877313        1.93854419660463        1.41862461347943     
   2.43783029610277        8.32436547940389        9.53173554089754     
   4.09851351211004        8.55838446315292        1.05844583581629     
   9.62276692142469        10.3880145571369        4.32993873716611     
   4.65695040842285       0.879792478826707        7.56586020707560     
   9.75951333507452        5.09024809228951        4.88238659244989     
   2.17207400424489        5.35752889456385        7.80120191191836     
   9.40164984430399        2.09996105515898        2.71263247036230     
   4.02855380064648        2.98099633365870        1.62655671526656     
   1.61217487876549        7.53052620910020       0.932108548717090     
   7.03375045316395        8.39464321600464        1.43273946596479     
   1.57141160145096        2.79451388447854        9.52313903551249     
   7.36553575654805        5.24930699304608        6.75358981569063     
   1.19445538394451        7.57876843857057        6.84032353372561     
   7.30204893910977        2.51228293643096        7.72960973224845     
