test
1.0
   10.2966574157489       2.768070606630988E-002  1.478497322437544E-002
 -1.854878597296526E-003   10.4222937530237       1.100428710042263E-002
  -1.77383453765276      -1.221773048294447E-015   10.5234836120363     
Zr O
32 64
Cartesian
   1.21127861994187       0.238974701108788        1.10963614217826     
   6.37234645173845       0.233874863033268        1.13138769490484     
   1.14577847434279        5.41752934481568        1.07767195043543     
   6.34187694451464        5.45404263005991        1.10746501850612     
  0.303712510320331       0.233888111909143        6.36727349286137     
   5.48342468857678       0.260706976025178        6.42804233213285     
  0.328856945811942        5.44686003985534        6.35120352542716     
   5.45084516339230        5.46365741960296        6.42978941089559     
   3.05117812278067        5.04360663125308        4.11626925350107     
   8.11353196042734        5.06449884774235        4.20123204578251     
   2.98715496164895        10.0893300975717        4.18964503714645     
   8.15304601423247        10.2465014369488        4.20347215520940     
   2.12312144515270        4.94686427186163        9.40610961890470     
   7.28103704738456        4.90616002603426        9.41878630556993     
   2.16531039915783        10.2360135701614        9.46281681626576     
   7.32841190197938        10.2216893854132        9.54472975976224     
   3.46678682793264        2.87968156009341        1.61680818360222     
   8.63469904733659        2.85158236960305        1.53508590991915     
   3.41928102680625        8.04642658042753        1.61775214281698     
   8.61838327343204        8.11223403174200        1.54382011961643     
   2.55239306555962        2.88864638151787        6.74976815552389     
   7.72472669819004        2.79545723364916        6.77563573913580     
   2.59051739207036        8.02555841952787        6.81984598001264     
   7.68544824257860        8.03004758493872        6.85852017973820     
  0.774280408833740        2.38351724861170        3.76764579924447     
   5.97395801261450        2.39559178898278        3.76125094816956     
  0.750298677703886        7.57725072694937        3.80022867263198     
   5.96351960536060        7.57050569729551        3.70873840549602     
 -4.712728562433685E-002   2.37444733846361        9.06790502337355     
   4.93665568415539        2.36921085790888        9.07915439737746     
 -0.120628592808856        7.57366420385353        8.95102599625728     
   5.12161355060783        7.63474563781537        9.00672700856148     
  3.691385740744924E-002   1.70962022896857        1.87022564321621     
   5.35880374350641        2.03605347864802        1.80117297961637     
 -4.879558864758258E-002   6.86308761347967        1.83233375749409     
   5.21812916177060        7.10627955411088        1.74902257019722     
 -0.777541138885431        1.76310582641629        7.09455981864105     
   4.37378828873354        1.75671680443156        7.23112882038296     
 -0.869838952017133        6.96243075382693        7.02011100503491     
   4.33425213417349        7.01618640387931        6.88440385567638     
   4.17511603012748        3.51804455538242        3.40797273988462     
   9.35873825757417        3.49580456763123        3.63206494250099     
   4.22752819811100        8.68520674206365        3.47526007803882     
   9.42894201849558        8.74338350437867        3.46611959077270     
   3.24693768461184        3.46093235633795        8.71198277816481     
   8.45623471743563        3.33609786633312        8.69566046157082     
   3.36823179960839        8.77047344066938        8.64537824388827     
   8.35911554094811        8.53957408266905        8.75675783996862     
   4.60654718176862        4.45594976085959       0.864395321673855     
   9.83550897897430        4.23504456860168       0.734134237913955     
   4.63569499045323        9.65590455732555       0.876317162786798     
   9.80052471763519        9.54157557188146       0.777143957517178     
   3.78912644878470        4.38125450599897        6.07611148604364     
   8.80868085884058        4.42037413063532        6.12458148222469     
   3.84439101095127        9.49775904414392        6.06564046899981     
   8.84557287372158        9.55959207390279        6.04868022521314     
 -0.415302893615726       0.864566979824351        4.36119509708752     
   4.86408008193982       0.835949402440372        4.37637342311424     
 -0.373150351638841        6.12819360308156        4.58377638930879     
   4.79780045373943        6.01661776390258        4.35622752313699     
  -1.30767464393661       0.897787706598734        9.80873834883842     
   3.77654498108840       0.949119967634414        9.80824637113989     
  -1.27168308145333        5.95373438532640        9.59413373563812     
   3.84764211287526        6.11913630546181        9.64702736438358     
   1.82869636218473        3.97254426483381        2.60486404447672     
   7.18964858245659        4.01926770136763        2.51033994899595     
   1.91967449608722        9.10334496894197        2.52131044354738     
   7.13649639831189        9.21118509906770        2.46051182342152     
  0.989463947185674        3.84196259443650        7.73238105910791     
   6.14403931130965        4.08374268192378        7.86849969829396     
   1.00408788648754        9.13675141218877        7.74731550196301     
   6.15692056328297        9.28829878807128        7.96804570736704     
   2.42560504689411        1.25293993893445        2.77553247488582     
   7.46958735522700        1.27277081175748        2.79905280137410     
   2.36638516484950        6.48722937753166        2.73900643626391     
   7.43595532062445        6.53393689574520        2.64661503118424     
   1.57030151740756        1.23771663766387        7.98431437552440     
   6.63051423791383        1.30840046741739        8.09222069452113     
   1.49081502054473        6.38339579975787        7.93715308016794     
   6.55263004439576        6.54111333867776        7.96937426493178     
   2.83420084013826        1.27480831194337       0.174272952665631     
   8.03398123576452        1.43796669968840       0.147494444822627     
   2.80550800928903        6.50100840816834       0.110162665700179     
   8.02149808406298        6.56067454058003       5.933514619360494E-002
   1.90767094738622        1.28371663514556        5.38675547236156     
   7.04369814808752        1.42781659170639        5.42278489517210     
   1.96663628103659        6.55301390727523        5.27657045628623     
   7.04790061124500        6.64235015359795        5.31073182453041     
   1.50766982874941        3.88870353426095        5.16490600284034     
   6.65537672823601        3.98226904006640        5.17959390727869     
   1.32504352797756        9.07928647399140        5.14143418667788     
   6.57262836219536        9.16964573134671        5.13175157025143     
  0.629222458250305        3.79188753832446        10.4033422956008     
   5.59350927005377        4.00399656194332        10.4201318808937     
  0.504117686484889        9.00474377248930        10.4274690528850     
   5.63641144320504        9.03997726669061        10.4418894428615     
