test
1.0
   10.2458251697085      -6.208762236467381E-002  5.444428419376446E-002
  6.783214525104741E-003   10.4374492182631      -4.024222405254464E-002
  -1.77720366766519       2.634966022071260E-013   10.5434713750371     
Zr O
32 64
Cartesian
  0.389616765264746        10.2473190335613       0.883117566710243     
   5.38216634315618        10.1913246041295       0.912346241076170     
  0.246241396642872        5.06357984075071       0.940796394822201     
   5.49434962474323        4.97914025991593       0.869597637107274     
 -0.529118625016786        10.2848271459875        6.22109154086727     
   4.66597977580834        10.2491992750771        6.17233123803962     
 -0.499244596730908        5.05624818184152        6.20121188489261     
   4.45409545835380        5.00235535890358        6.11413689849639     
   1.95067122136101        4.56351031146817        4.01659388556282     
   7.01805598661047        4.51632927360117        4.07706577171327     
   2.05097301916234        9.74037668188642        4.00284963679113     
   7.20652326820776        9.77755373192817        4.14091452948474     
   1.22020944329886        4.60935204503250        9.30625469630531     
   6.39063354064833        4.62600002470885        9.14205736751172     
   1.16252736926361        9.89334929283241        9.33475463463810     
   6.36460124929470        9.72575292575110        9.29060095455801     
   2.50145264283002        2.37268107763910        1.45429902609688     
   7.60452747675814        2.39937685098052        1.26638606916857     
   2.48155430555323        7.53761145661089        1.23197078634887     
   7.61404506263081        7.65680488288927        1.46130685525000     
   1.69947179544734        2.42116245582136        6.56671807818823     
   6.69234146014995        2.43407608871854        6.72384873384342     
   1.69838221960154        7.67734732472522        6.77462566607108     
   6.76798999341826        7.46349342494044        6.67103644343909     
 -0.224679941091698        1.92306179968737        3.45863078854968     
   4.95528149303001        1.90003526075978        3.51437019357339     
 -0.210536448136300        7.19221669345642        3.59942179144115     
   4.85788450056582        7.19433728433700        3.52967458573346     
  -1.04237537892377        2.04792703346472        8.83498248640601     
   4.10329987706163        1.97689906873418        8.86848769634343     
  -1.04424306039283        7.25218757677485        8.84132486857778     
   4.12363341859727        7.26501569366176        8.92723045977099     
   9.56796228812897        1.62151262479300        1.44670862960895     
   4.02878531407202        1.14873547006659        1.73072670045186     
   9.23939843442510        6.42557325886640        1.75811062179148     
   4.11886130733222        6.42148618795683        1.52830314742187     
   8.56982276682040        1.43553622088812        6.85242476223069     
   3.38075625920826        1.34985436082091        6.89042554611404     
   8.43466231021411        6.33541787551776        7.13875365429327     
   3.32398545569720        6.50224713043211        7.00962425598268     
   3.24074638564135        2.96455190745681        3.28824813432491     
   8.37625908937030        2.99976565788808        3.21331221540198     
   3.12349996193736        8.23700817258044        3.36554948681095     
   8.30501207596675        8.16320860408551        3.41475370479080     
   2.52784727957637        3.20561495827897        8.40591895808181     
   7.25473500621429        2.80664454689841        8.66192287578362     
   2.35998658274341        8.23563550446793        8.72063854565853     
   7.51168927482450        8.13444574605085        8.58304088447771     
   3.76056615283786        3.87233568475907       0.476376030485073     
   8.65379070569564        4.05081889015756       0.678803199734247     
   3.61503407594475        9.19977959875766       0.738769756639221     
   8.84077690251333        9.03500262833853       0.653981470402615     
   2.77342569602270        4.03933600769033        5.91822188158507     
   7.81173820491316        3.93319024373247        5.93916991171106     
   2.89739165378116        9.09338163309286        5.91646428594345     
   8.01256024691159        8.92591781884690        6.08583045267928     
   8.94732349109514       0.406999104653417        4.32579435430103     
   3.68128809481849       0.421706575461647        4.34170027997319     
   8.80254943221405        5.61437212531750        4.39083437470329     
   3.71224120950834        5.60196537585346        4.20609131301914     
   8.15765476594358       0.229803320792792        9.51965236053682     
   2.84786415053713       0.465314982534378        9.68165625206402     
   8.12103655067828        5.54457615938045        9.55159230764619     
   2.93040734901002        5.71540509742222        9.51581828056268     
  0.903614845609722        3.60332315528219        2.31478720928382     
   5.98020273905426        3.37600312271098        2.33275008277294     
  0.751215713636619        8.69416482418188        2.41463530672506     
   6.12105718770642        8.79220385922210        2.38042906532414     
  4.588542335416831E-002   3.64703925543063        7.72614686540080     
   5.08577026464514        3.56933483586546        7.61174231081990     
  0.198225907011610        8.82466069697551        7.75417021657287     
   5.29135534793586        8.77794648139874        7.56123804074107     
   1.38711930774693       0.829906981109163        2.54310398787295     
   6.62754865150281       0.746312591264150        2.48567807541221     
   1.52532275612912        6.15456415633573        2.63583906695854     
   6.46386888756081        5.96796209647254        2.61912390587042     
  0.599763439824101       0.950873200223232        7.77829935868681     
   5.62122153069243       0.881315100440665        7.83056815993360     
  0.485796210495076        6.28873067683162        7.82003725128705     
   5.67718035147450        6.15844503304578        7.92763143272661     
  0.148861624899756        1.04648628110446        10.3971941562460     
   5.27230276045690       0.901243238802266        10.3045814271486     
  9.696597635394848E-002   6.14253367579256        10.3867788625496     
   5.21533687974015        6.09214994835053        10.4449752385027     
   1.13421020960565       0.937609563334504        5.19133893823417     
   6.15292750116654       0.943037973220834        5.30480466099728     
   1.00171449789199        6.14133324775829        5.21183815390477     
   5.99844785007286        6.14510383176680        5.22154909851966     
  0.394339377077470        3.53648263998633        4.89602211318013     
   5.44598459867178        3.44345264377878        5.08428146578566     
  0.431332789813808        8.80359201822494        5.03153452725140     
   5.64922297254629        8.54283476931759        4.90612512141360     
 -0.243013581510507        3.44105117150038        10.3166334801313     
   4.81269280932110        3.44927422032838        10.2321417258737     
 -0.328310770969349        8.71177350383821        10.3070487393408     
   4.72878062226102        8.70861940033515        10.3403447099166     
