test
1.0
   10.3131313814535      -0.222940306544358      -0.426727697222095     
 -8.612573496640827E-013   10.2870447987648       8.712798401844976E-002
 -1.091228940887430E-013  6.379628573279319E-014   10.8906943190733     
Zr O
32 64
Cartesian
   2.55613746651850       0.202138117151538      -4.047447906175516E-002
   7.69375822630399        10.0202859937003       0.171965089201066     
   2.74910002760688        5.14588450156951      -6.419658871750104E-002
   7.79853011603599        5.13311239757513      -0.155139053773694     
   2.57709825098814      -6.407515365706746E-003   5.34305938933349     
   7.47397650900455      -0.137203051369887        5.39043268945781     
   2.37639881445190        5.17797599360108        5.61772987174383     
   7.50541448847437        4.95690274353582        5.46923036953878     
   10.2774735514059        2.37306077015177      -0.154495256628005     
   5.40633195377372        2.44856030681634      -6.778117157385047E-002
  0.176920933663078        7.92638024881502        10.9042589555791     
   5.13267612691345        7.73346436166321        10.7125409616112     
  0.106362385760982        2.67816702858532        5.51136977640434     
   5.09362373699885        2.59634522686518        5.03487888962488     
  1.667672256393514E-002   7.96300521587017        5.84155662176198     
   5.15340999772418        7.68628104900085        5.26526572631209     
  0.179828173755914       0.422672495639533        2.79275153763729     
   5.14578073889399       5.645284352913532E-003   2.63181616769921     
  3.524709099050165E-002   5.33053445812682        3.01700247750747     
   5.25305304667177        5.45336127637412        2.74162467004390     
   10.2242396040775       4.620098705377805E-002   7.89106214625723     
   5.25899512250305      -6.416729682070643E-002   8.32614855821677     
  2.094791035595106E-002   5.22642332542260        8.18059414604891     
   5.15624820111519        4.94056732057745        8.19180266777301     
   2.61942226207852        2.95622245220665        2.69790112353075     
   7.79318282358354        2.57799580874336        2.48846124401010     
   2.45843346265947        7.93108899418507        2.52865744282508     
   7.70245242192870        7.63710080631115        2.76242320250591     
   2.40347257213872        2.59289381933831        8.50846796990033     
   7.81313098340042        2.24159710236372        8.00874284372564     
   2.81606726557140        7.74897555653711        8.06121546289383     
   7.60015638902233        7.48791133333763        7.90063097433505     
   1.45893268825041        4.20156652857439        1.21761873090148     
   6.71005371149852        3.73625683529709       0.905129034061034     
   1.03905572575030        9.28705450916621        1.58483959868239     
   5.91524309724823        9.22142063310382        1.19431394546676     
  0.973041829804163        3.98176325561469        6.80460742501410     
   6.02585825136079        3.98500585672963        6.10224310257627     
   1.16685394529509        9.29685123476333        6.67795992612729     
   6.54286451378569        8.55381983671886        6.24649634736831     
   3.49905812991940        1.87646937881028       0.544909474088786     
   8.84126140132931        1.23533939212991       0.532140645090651     
   3.51378725969357        6.96441068433417       0.762179486302889     
   8.25069184628458        6.63646341225393        1.04406894029646     
   3.94898253201569        1.38307451273334        5.86295206738811     
   8.99515316613047        1.25528811109451        6.40840715794005     
   3.88893410836764        6.31513760944133        6.42788298365815     
   9.01756209303898        6.43475607298942        6.76583247708944     
   1.24358384730463        3.91581027591092        4.02880514256363     
   6.53150687990264        3.85425840597628        3.62198783781045     
   1.30099920201939        9.12255750060869        3.95129142648756     
   6.31578357833823        9.25933689326479        3.94438221606700     
   1.39223849338647        4.32816234603916        9.43533865874217     
   6.27581459389843        3.38149428127619        9.19662842554232     
   1.23938446327562        9.04956277298653        9.34882406263397     
   6.52586618073730        8.86118428480035        9.38820389752192     
   4.13801875190876        1.88883212610223        3.35176908410716     
   9.20919018919987        1.54686824291631        3.26523357009610     
   3.86729292860061        6.95032555336671        3.52309187364500     
   9.01895787686644        6.41252052824246        3.45992976768137     
   3.60168810902364       0.833077701801680        8.70922587571452     
   8.88269944339756        1.16364925526841        9.16039001534682     
   3.93773128088402        6.26080641283612        9.03814046913455     
   8.86673901226394        6.67796461756100        9.26244859100765     
   1.36555117126541        1.55093872357803        4.33918432359812     
   6.73223318785386        1.50736946509374        4.46739272222580     
   1.49149553032372        6.37749204518150        4.43449485815884     
   6.51570522252791        6.50207944733128        4.43881215996949     
   1.29843994403954        1.51048574428658        9.90214030972561     
   6.05788541025318       0.883281188311127        9.94874899576449     
   1.38270359004209        6.76543520943802        9.63698253308730     
   6.70575931299634        6.24820939997571        9.60660927031775     
   3.84621172136266        4.10033783823079        4.21942674659048     
   9.28673373846318        3.98118206943992        4.28480775274716     
   3.95676487492451        9.11518378004221        4.51864958248351     
   8.78060129761075        8.81473042725655        4.86170689533870     
   3.89515565820758        3.71366803377965        9.82869434429671     
   9.12940774536957        3.81500116797003        9.75790302422670     
   3.73934341939751        8.89857893531176        9.73744088028674     
   9.37729420386611        9.33378465650915        10.0515872315837     
   1.19782146095052        1.73060879099718        1.67334743958322     
   6.55890101141308        1.26049074817160        1.51210600927955     
  0.891232676942978        6.98133498974211        1.70557060816157     
   6.12375012797601        6.79686165610492        1.76003566589759     
   1.64393088753213        1.58811686528300        7.03649828830062     
   6.51324905234144       0.949645107707931        7.15728322273210     
   1.27546469847674        6.56438449173572        7.06786141547828     
   6.38347671184350        6.23828954356119        7.03054572904456     
   3.94717811736324        4.19724740860538        1.76429319124646     
   9.27405898714644        3.78836176230534        1.59593121254615     
   3.39111948007803        9.58855675109194        1.81772491034291     
   8.63825572513272        9.47533551599563        1.94348260350224     
   3.90346922916284        3.64195049412340        7.20718972930017     
   8.65091191236376        4.07523979353769        7.16911374126156     
   4.07636267246247        9.09936100613822        7.03663618787938     
   8.75466046005417        9.16601687200484        7.19043224921539     
