test
1.0
   10.5251904271942      -0.372339856180017       8.153107468072265E-002
 -6.448522773017859E-012   10.5770175197922       2.266879671978836E-002
 -4.742627974124737E-012  4.262443399974875E-012   10.8193292560596     
Zr O
32 64
Cartesian
   1.40259830513267       0.766019901510344       0.304930878106145     
   6.29045384300202       0.922297665508670       7.483214366208735E-002
   1.17782399305672        6.25254091007908        1.13660421564533     
   6.55992747524813        5.94799113804510       0.453008602440225     
   1.29220369463134       0.783982786727763        5.99473319904809     
   6.85198567238818       0.583823171202838        6.13198399540549     
  0.854184822638290        6.21795975363312        5.76825097117907     
   5.96457847425647        5.75262887756184        5.70914962195446     
   9.06252863850689        3.40817727156013       0.606017074810376     
   3.77851092361310        3.72615932125874       0.270377666711540     
   8.72720190621135        8.87373097237305       0.629123865068597     
   4.51159951697470        8.44576667306330       0.738325497041129     
   9.00974266844246        3.33018689016950        5.81629216900414     
   4.12558655816569        2.98045474135146        5.80198593548799     
   9.23396363450049        8.22253042245119        6.08345022326227     
   3.83525140179155        8.72806512357671        6.29601603889212     
   9.34468754359136        1.04587794922227        3.19285524032107     
   3.61925147574685       0.388948762081517        3.06221323523610     
   8.98151582461024        5.73035029174439        3.15890685880512     
   3.85527616134271        5.81461631355848        3.41974209197730     
   9.54237379709478       0.932512266757592        8.57450386267556     
   3.80985827264897       0.655664348390763        8.68848969319520     
   9.14770411483106        5.66726302020203        8.61496001828242     
   3.53561729374642        6.36284031649804        9.02413496686563     
   1.18945018692437        3.54004855220901        3.43445441255352     
   6.35001125902532        2.82903097617605        3.27200726389988     
   1.17769745560929        8.94369335239645        3.47069973198590     
   6.66921026993433        8.87137990293317        3.26327248001977     
   1.28998756687470        3.66068102242139        8.39667941991017     
   6.48572376464526        3.47454112239708        8.51530339952827     
  0.976727854060264        8.81447255341663        8.79559390872953     
   6.57119918622144        8.32746334054810        8.39766861781031     
   7.50915102206577        4.77854292994194        4.65017295149876     
   3.18737214619214        7.38536790705038        10.5709335730248     
   9.71329480233150        9.77849029932817        2.67794205607463     
   5.59471884604295        1.70334150025288        1.86676142185757     
   2.36362420416638        4.93180537658279        4.41775969089533     
   5.06165566110601        4.45249226713466        4.55742830376154     
   8.11627818724208      -0.135471908879636        7.39141098104393     
   2.45588581776163        10.1534199964032        7.26919099253060     
   2.65499281135237        1.83107182391260        4.46007553561926     
   7.71691117864718        1.90764883144855        4.60790794593509     
   4.73183616824236        7.08673049031895        4.74115414406930     
   4.46376542791000        10.0150796005872        10.5607007552841     
   7.61061206560816        4.40848751532429        1.83294160886651     
   7.60791714379439        2.29737957644855        9.98072765394645     
   1.89278293113978        7.67605799029526        5.04976228096980     
   5.18869469584805        10.1408863690729        5.29441487995792     
   10.2742136150913        2.00677094555458        4.56469465352472     
   5.31528980117776        7.53624843095003        7.17513857013906     
   8.22807875057851        10.1092782790032        4.56768656753144     
   2.66252681959072        9.72687799871626        4.42692288636818     
   10.0439887901809        4.40501933856576        6.92479151716781     
   4.52557431465357        4.82894291059881        7.00768861740204     
   7.26558770989097        10.0163269888545        10.0449772352168     
   3.03474927270086        2.13010197978118        9.85954117795841     
   2.81663710886915        2.23737245791851        7.25712931193791     
   10.1661438823597        3.73416212859925        9.62402551128756     
  0.357536486188497        7.95025776909316        1.87127047437248     
   7.33360447105973        7.30044824269170        5.71135253850363     
   1.85462461164934        9.80359219982601        1.68450739724902     
   8.05664523506953        1.75668731370425        1.73922154492183     
   10.5183711971632        7.30241996292995        7.20962133197067     
   8.06330151859877        7.54909643324667       0.142368853653559     
  8.796839418642369E-002   2.83232916711482        1.81948170092086     
   5.63300123809733        7.15637730105340        1.91032044756113     
   7.99761468392065        7.45147570940040        2.74875913943464     
   2.04163657864288        4.17648605448245        1.75697868368295     
  0.138186270002183        2.23674506728775        7.05352592957310     
   5.21333870552370        2.21535378377631        9.76580929327421     
   7.78509388247665        2.30848760236950        7.13325489438144     
   5.70988855872725        7.28380948269459        10.1096986781003     
   2.79088417978614        1.93227530134271        1.60026792388916     
   7.43145224502739        4.84776558855686        7.12068242615324     
   9.82414259111579        6.86060690116754        4.76397510279994     
   5.22020983889430        1.98117317710559        4.74236223895478     
  9.326771708725370E-002   6.88160887013148        9.55434785589604     
   5.40734261794613        4.81932022826345        9.71687320932061     
   10.0867651311509        9.42381422160922        10.1039823603725     
   5.43418943455923        9.86351432377102        8.11488351748018     
  0.427134689228524        1.66057503963623        9.55446210316095     
   2.39114587613441        4.57565048983710        10.0455147098884     
   2.07576760798490        9.92849768136002        10.0103126063742     
   4.47867737113446        9.34951625821739        2.64560949067598     
  1.216811550819304E-002   10.1762623603734        5.18374017214833     
   5.33851821316033        1.80821267361999        7.21025028662848     
   10.1282104288363        4.52224711689939        4.40610834901839     
   3.24240198024166        8.44548787943160        8.14294129074871     
   9.92229294297184        5.01437513185061        1.59161840480992     
   4.42784860646167        4.77881971120215        1.70245266765855     
   2.66658526376206        6.99838633581919        2.51693244126106     
   7.09243088696701        9.69289947351273        1.62625004032527     
   1.58181913517188        5.58067441613889        7.84132501381071     
   8.33481592576509        7.39365045973718        8.07470392191594     
  0.121215963066148        10.4316559624806        7.66484162752508     
   8.09494239957717        4.92913510141660        10.3197969867662     
