test
1.0
   10.6341789086356      -0.241489020223836      -0.422504011027554     
 -7.132072007185997E-012   10.9112306425399      -0.274150997928312     
 -1.462357449057842E-012  6.351753330932030E-012   10.6061889412817     
Zr O
32 64
Cartesian
   9.60615112163383        6.82263874391761       0.310174765817185     
   4.33320210688668        6.80379211147940       0.551332984517335     
   10.2023414462081        1.15048527500382       0.273552744349839     
   4.30950349909517        1.54115775765074       0.757647206563586     
   9.84110330160472        6.72860293447431        5.62995081116820     
   4.27802726900729        6.84224748127913        6.10231244933953     
   10.0065776634757        1.34482017148471        5.96337784437289     
   4.65451301881090        1.94324835288642        5.80899594097305     
   7.70440712107142        9.34096021066045       0.377574841501360     
   1.76798982269069        9.52584800753583       0.651849539857894     
   7.16791379928059        4.01658735841982       0.280576179403950     
   2.05330792644090        4.20577688326265        1.35874263912337     
   6.78691625103916        9.61666330898314        5.77047052535503     
   2.62722640542626        9.87521339335552        5.41184747733191     
   7.68901584642443        3.71429774551264        5.87455351059436     
   1.96065114167934        4.32624891091768        6.35674848247411     
   7.14454611001071        6.80704683922462        2.99110536416808     
   1.58222815894509        6.97293671711673        3.62200331257561     
   7.47268014820305        1.17564880400988        3.14492401238669     
   1.63157979347803        1.58434114321930        3.80658708665845     
   7.25474152972355        7.04547698850266        8.05079449971083     
   1.32304103615994        6.92363088303330        8.82203626157240     
   7.22638180600795        1.17583692567651        9.01481150331383     
   1.84898329423141        1.52555968067742        9.10693315033020     
   9.59820205923400        9.28877272226528        3.20583040964671     
   4.62604325187956        9.57943841883192        2.54922395720572     
   9.70553500785492        3.71106305806531        3.22737077343317     
   4.53310448240191        4.51836720523388        3.55554404941793     
   10.0915957584678        9.85970990645629        7.77062904499286     
   4.49477619435210        9.66814436992025        8.79965287766133     
   10.0308855944902        4.01253066123493        8.37378026037926     
   4.99755261114719        4.22117719062498        8.42446806885756     
   8.61164153627708        10.6358736947435        1.81433653622387     
   3.36855870017607        2.56695956482520        9.81413571926690     
   8.10751430460971        5.42256005862240        1.48345358623147     
   3.48154076875899        8.48205791706232        1.36967303184841     
   8.86294634459212       0.488720271733938        7.80232589616966     
   2.90466305561902        10.4932404306629        3.49361013565715     
   8.09246518535202        6.03421736980817        6.51821368919364     
   2.50982046819706        6.14573721014537        7.31238046416609     
  0.595802952127144        8.40268092479975        4.90629571755875     
   6.16579350645776        8.72461527267508        3.86871068852889     
   3.63758150514976        3.53576046020652        7.11928656674380     
   4.10895912741034        3.16271716448068        1.61576119751717     
  0.711959852728044       0.243038476505485        10.1907319272436     
   5.40219000206847        7.79533201075538        9.43890610778693     
  0.525500485214227        2.78725692270381        4.98255520335126     
   3.27264859255812        5.26601194643444        5.11274173070149     
   8.31271734980447      -0.187916484427912        4.92128316099478     
   2.96258196333331       0.987288741269596        6.23597205199749     
   5.63944384970563        5.85501472892517        4.57277103597772     
  0.518038568842795        5.72656038734284        5.04784324590096     
   8.63884992850105      -2.404141106173108E-002 -0.341167146158190     
   3.29065779145866       0.227791492116801        9.73604816271733     
   6.42733673722100        5.25622206639402        9.53070297601069     
  8.107883822642024E-002   8.16110771973054        10.0409505454404     
  0.184180221159271        7.85360273582497        7.41907512062136     
   5.95451896454512       0.138848106344940        7.82885497453689     
   9.38321277962711        2.12930344943805        2.36375186795594     
   5.87541198792352        3.29986457475556        4.66770698878890     
  0.741250470446896        8.46118091514519        2.58849641609404     
   6.17240436348963        8.04541225133543        1.31925551730366     
   8.73811481147363        2.93120509695356        7.28495807633209     
   8.32816407263747        2.75106648463702        9.69272169150863     
   8.74245021424616        7.54512061153835        4.12692813249212     
   3.29992572984749        2.87323836254602        4.30682835116966     
   7.28510419139706        2.39732813840815        1.51564461623897     
   1.32539609806248        2.54061701396793        2.06606060128908     
   8.26071426423208        8.14355587102606        9.67904500625632     
   2.66239069955614        8.06843650454261        9.74572773271992     
   5.52039842228807        5.88216375489141        7.40098738150666     
   5.65793402104159        2.64550878400194        9.94873509893501     
  0.505089038641836       0.440578870102459        5.04713726834633     
   5.59057369471700       0.399989579066807        5.49613285074782     
   8.22487344952093        4.81959846639410        4.18331465228288     
   3.36263885757994        8.37333762649815        4.29054577478527     
  0.511731412697064        2.95993046843148        9.75070502478679     
   5.90762729593515        10.6025328256432      -0.442009493026966     
   9.24067307983497        5.93274104971843        8.97971749992205     
   3.56089597181574        5.03848086029320      -9.677296457061803E-002
   8.71973925375627        7.93311246848604        1.71292439923859     
   2.99829989033679       8.811475572727531E-002   1.02123873875328     
  0.896013426643517        5.59209526603519        10.2041584381181     
   2.92814158136109        5.75683312576994        2.80637074021640     
   8.43152487891378        8.79397957766387        6.75135793564282     
   3.47944417763249        9.18618653726852        6.87526993040408     
   8.74558267117770        2.41543283516019        4.88271273498786     
   1.26379338100298        2.54954305676065        7.45428599155772     
  0.267873251828689      -5.753715782299358E-003   1.84477843780560     
   5.70470653182005       0.474598504972092        2.77389858375894     
  0.279069353676649        5.39498616528422        2.56886070334324     
   5.51177851196671        5.42670178513884        2.22405184303804     
  0.836933780229609       3.258422286017987E-002   7.36996634686434     
   6.06925909083643        2.94612303700929        7.09261504304161     
  4.721877096695284E-002   4.93216720096845        7.09345859566417     
   5.91481135787383        8.32386191657140        6.68957573452513     
