test
1.0
   10.3157156073001       6.027990588732187E-002  9.112677031045258E-002
  1.465710142567461E-002   10.4132608076088      -8.695499122322470E-002
  -1.77932413083009      -3.204205918571200E-013   10.5560512739594     
Zr O
32 64
Cartesian
   1.32720598120884       0.487802434923440       0.583118687502842     
   6.34989378615513       0.470525053302057       0.639171698925698     
   1.25061912976986        5.56837627906364       0.504560237704781     
   6.27259609281630        5.75465755922327       0.386552661818752     
  0.537024402525658       0.494286354672312        5.82169179737662     
   5.50008822451427       0.545973180324508        5.80230667640538     
  0.359600823769355        5.66664361532288        5.84218015761462     
   5.62084351360306        5.72500770239471        5.83535566117161     
   2.97115366462487        5.20798417879608        3.64317527903171     
   8.19903439071360        5.22276738574951        3.60554041722356     
   3.02827608269079        10.3272819589848        3.69147822712331     
   8.28875392627215       7.246106762809063E-002   3.84303026504025     
   2.15253954352921        5.22318857773764        8.92353123928831     
   7.38829589929141        5.21279108503200        9.01738878332581     
   2.25663690366808       3.009526130747723E-002   8.95452740869931     
   7.34182728375349        10.4370199642209        8.87064106926775     
   3.49356156478671        3.10099579787256       0.989859441764565     
   8.65043769592502        2.95567841329716        1.03423628633686     
   3.46803123483021        8.19864252635451       0.959109038971135     
   8.53963151696023        8.30183738069129        1.04275684401094     
   2.58916565573649        3.13473578881119        6.36541271584713     
   7.86404928082426        3.12079622228739        6.40905644705920     
   2.57848763419103        8.34209129124787        6.29393899301119     
   7.70979339484352        8.33598191128598        6.12645820091699     
  0.812724554349389        2.55802683618381        3.20841815982703     
   5.95955709708621        2.61090583974502        3.22771111422879     
  0.727923301047426        7.71562097574673        3.15065647305352     
   6.00427260840530        7.94223911374295        3.24258316711566     
 -6.815619980240512E-002   2.49684876670039        8.50815995896869     
   5.17438698420294        2.56905843715399        8.52847285544117     
 -0.182085208635885        7.91041441277699        8.41187770345755     
   5.17054499045070        7.79710473488950        8.41777163701491     
  4.614493320076504E-002   1.92365206704055        1.05606892876938     
   5.31416796950354        2.22180556445426        1.18787818763962     
 -9.885898120235129E-002   7.03488547191244        1.20638659267618     
   5.29490727024487        7.28063139336128        1.16340164157168     
 -0.694373423502095        2.04250118231110        6.38758089252395     
   4.58980728561438        2.13128098195489        6.54560911348193     
 -0.769298131552672        7.27745681795387        6.51600887888392     
   4.32710317929847        7.28698415895404        6.58462555259220     
   4.25552163492947        3.77945365208913        2.86793890020524     
   9.43436062920474        3.72156260175695        3.02598807637905     
   4.17467636784747        8.77888730630625        2.90693533226332     
   9.23917738023395        8.77792191405894        3.06661738430784     
   3.40136743176226        3.73564482452458        8.15276234895604     
   8.61939415748536        3.80911763813935        8.28358767858756     
   3.44329815395147        8.90695849739228        8.17825554829920     
   8.42887696266263        9.11493726448704        7.90214776930037     
   4.69073841262091        4.55283495268925       0.198948717973550     
   9.82868059492102        4.55090240228110       0.352597322981045     
   4.71796674977312        9.81225209159186       0.320294095798078     
   9.95947343244219        9.70424756479150       0.175570259877236     
   3.86690743663365        4.55991921868165        5.48562528197834     
   9.04250107053247        4.52071375538365        5.49370680582386     
   3.62919112072131        10.1456599256446        5.63323386251641     
   9.01655941278634        9.84826058652287        5.54178464969152     
 -0.208682288785155       0.906862552245639        3.89637389496954     
   4.88550563848312       0.758151987034602        3.71979171580272     
 -0.238633900419390        6.23997037288087        3.84570964179406     
   4.72327605869861        6.36607165189201        4.01921118323226     
  -1.21055118896032        1.06825085889597        9.09919202898276     
   3.90972625290932        1.00357143200839        9.04793268556280     
  -1.33024199417712        6.33699372562689        9.11806094618847     
   3.88671182154886        6.37928642018008        9.19831172227383     
   1.96176461353029        4.09093339864611        1.87810536019633     
   7.09297145233587        4.08662744008056        2.06658194090595     
   1.86949328573131        9.37649152317892        1.91996703857370     
   6.99951900335670        9.35928235962780        1.85382763856258     
   1.18933671787153        4.32674626666896        7.26230603987371     
   6.20909131276978        4.22239610281125        7.33043846432877     
   1.06821388074345        9.57527302850093        7.29806475964431     
   6.16410166730988        9.40676768585039        7.16060974307460     
   2.35424046351432        1.42071553370504        2.29972085913484     
   7.48867603708545        1.42498335298189        2.24805206620467     
   2.35728859632000        6.73391367093449        2.12408047074223     
   7.47061257451392        6.68831484486587        2.33605022020046     
   1.52987903930266        1.58234467550506        7.47096532230637     
   6.88308858891481        1.55590968321550        7.47885975379700     
   1.40208431366406        6.87146953656464        7.60791499571704     
   6.76824252633977        6.69434556016246        7.45924044771104     
   1.04162566544131        1.54216953944257        10.1080853555052     
   6.21383070639864        1.58608494335336        10.1883891792594     
  0.971012898315894        6.71406025926175        10.1714177068804     
   6.16582994350474        6.76041527892162        10.2757070585643     
   1.99584358661971        1.70401806925271        4.87933116509413     
   7.31121267661412        1.73696048725880        4.89088775622988     
   2.00766125545877        6.82826770030556        4.86419424448344     
   7.16264103846702        6.82187494136731        4.85571333160839     
   1.29523087659157        4.05765610186352        4.58667513341495     
   6.51870449516877        4.23687969226400        4.59794743280885     
   1.51791319070603        9.40901234791549        4.59846075144510     
   6.62754587034893        9.35736134036804        4.58734731644025     
  0.682970457161717        3.99181874336994        9.84698193980985     
   5.84612046756720        4.07912069865694        10.0705151726773     
  0.689144212630844        9.25642393108974        9.84797518914361     
   5.71223727645535        9.29950076833715        9.83705716915618     
