test
1.0
   10.3137998991504      -8.919239658002120E-002  0.347149765332456     
 -5.022923092757256E-012   10.3882504094764       0.298226970361405     
 -1.785011977066889E-012  4.865762418460973E-012   10.7690913503199     
Zr O
32 64
Cartesian
  0.588679777272524        8.36104616800693        9.44266129482950     
   5.79759348602287        7.94905639308000        9.41015669299038     
  0.629105594729640        3.22830893887163        9.37627267708147     
   5.44006627338252        3.12208346939453        9.20722652016367     
  0.598101006482114        8.34940653705521        3.94360541178583     
   5.22771794121845        8.08630352361708        4.10878565328222     
  0.471351496278782        2.93199104344526        3.98202322904160     
   5.77313082600943        2.81944919862608        4.12518716551004     
   8.13231247938770       0.411347177984806        9.63942186909786     
   3.14589541686931       0.802603401483591        9.27871650088684     
   8.33070106115554        5.33628063435043        9.38929000362117     
   2.86912773571167        5.73692281270596        9.43045499173256     
   8.16086099453189       0.157193496707073        4.21368592213899     
   3.20272571879576       0.463589883380943        3.86482398896553     
   8.05020750875495        5.47718865505399        3.97950873589297     
   2.89219385741421        5.46036560744801        3.65661503851826     
   7.88774352259553        7.99065556418067        1.44226951496800     
   2.92063789473982        8.22357612486436        1.48336838108751     
   8.21812765928720        2.81142141487928        1.27462637770030     
   3.13475292093737        2.61370446929523        1.29775728591990     
   7.97572342336950        8.07213030841838        6.71346942108975     
   2.71443046755759        8.36162684146460        6.53815703547759     
   8.02215704784725        2.62503373761738        6.90492263420875     
   2.60682811635621        3.19786869540506        6.52843766828377     
  0.566952469266990       0.295562086605588        1.07177064772191     
   5.73875355755357       9.944340640610194E-002   1.35896501035132     
  0.204147571691198        5.85936838952778        1.33303570684689     
   5.71596199229712        5.23953352943055        1.66649328092518     
   10.2957060960600       8.630063245160347E-002   6.95100074524020     
   5.52486222482547       0.245919891836466        7.23432026904442     
  5.595814612064635E-002   5.37734606307084        6.16719470366344     
   5.66773857388363        5.41523143641352        6.92164897705469     
   9.46527389878479        1.62767326618777        10.4622772691401     
   4.53636391620932        1.56780469850613        10.5770835166783     
   9.29732321781701        6.69078151177415        10.6740580682672     
   4.14718527331611        7.03864287434037        10.0990183415532     
   9.20722514173012        1.61812897488023        5.23069349615752     
   4.76722282676235        9.73570969524522        3.24296856538950     
   9.18702709893020        6.45064354770782        5.27546798366890     
   3.28618496964418        8.10529649286077        4.33873108713580     
   1.86916765052441        9.65535767433828        10.5592997826738     
   6.82393102226184        9.06301918386008        2.61615198037753     
   1.78606486925344        4.48661066496148        10.6370387194040     
   6.91527627194024        3.93659530765168        10.8142613169500     
   1.76439905604782        9.59921467443112        5.03259958939025     
   6.98805908884537        9.31513357255105        8.06973191747639     
   1.21981691703677        4.42488449400108        4.79562221449257     
   6.64150009111486        4.32864176833660        5.37142323457738     
   9.43828532655121        1.60354438246787        2.35772289389870     
   3.98071161045002        2.16932030972737        4.90257342014114     
   9.27894648305092        6.97615757489147        2.65976815938032     
   3.99900405086754        6.69848347416951        2.56364670866644     
   8.53750072897653       0.805982985186606        7.61746567754749     
   4.10222192871478        2.18092781293167        7.90487649367316     
   9.51914991226399        6.39496316853393        7.99100150864368     
   4.17307856847646        7.13690390725963        7.12895389076415     
   1.67991491234101        9.68167190740089        2.61205498321807     
   6.91564590577707        9.38136247232808        5.44546660415960     
   2.00684779615145        4.09289800058467        2.33741151079384     
   6.91185483142975        3.96288199812428        2.61812948731538     
   1.80860547927385        9.93962216803691        7.72013540257303     
   7.04302488830046        9.31622469077658        10.8956492582236     
   1.29389575892561        4.69364232514969        7.81647924415660     
   6.94428571509751        4.28493625700032        8.16060246363529     
   9.57795892900779        9.62590607560702        3.16939460315642     
   4.42749715104802        1.62121119042321        2.22230474265201     
   9.39773637529442        4.41853800073612        11.1758438519532     
   4.39487695041942        4.28046357185103        3.24879976603364     
   9.51331977982263        9.39113898676228        8.84637585150631     
   4.55181125540447        9.66549632549569        8.99301017227791     
   9.22015244895592        3.91604343503819        5.70710279392896     
   4.51458176398529        4.60957791276567        8.46359009820111     
   2.00453601910583        1.43667829566177        2.52437769628741     
   7.10916572183101        1.49506607730210        3.05265847078651     
   1.32570736138293        6.55770966982977        3.08001084481653     
   6.72956286281901        6.76126789671462        2.91540391050792     
   1.61290737179103        1.92248348493635        8.38015943099403     
   6.38085429385993        1.54436543715217        8.40717030709113     
   1.65727460262406        7.09182841525245        8.24732695104120     
   6.90656179558103        6.77939549199733        8.54948122861621     
   9.60729059089689        9.27016975123565       0.678612575745053     
   4.13871298094777        9.47654626626748       0.894649284049181     
   9.01218704020723        3.31743104319592        8.62434122784597     
   4.20583853872360        4.29943684419619       0.343843028851693     
   9.50891048911341        9.07653982188628        5.96497663063918     
   4.17170859826576        10.2363979755540        5.79164755719979     
   9.42660428809302        4.26575441129046        2.94784517829572     
   4.13548457925340        4.55560685009508        5.76054996227888     
   1.63531954843314        1.79928206979097        10.7197948772959     
   6.86687281452652        1.46241172578351        11.0291389265102     
   1.70793578129572        7.13947334598166       0.295137032594593     
   6.47432431419191        6.64929151020456        10.8720616406402     
   1.26028433568509        1.85882651724632        5.58697838074995     
   6.55501719497412        1.79777311078403        5.59035114919685     
   1.55280818716894        7.14922877785064        5.42162868432686     
   6.82950739775657        6.56545794104717        5.88453222316904     
