test
1.0
   10.3166975641931      -0.119273069577806       7.972768390640192E-002
  2.970783335346867E-015   10.3782002224916       9.872579301399959E-002
 -9.333230672804649E-016  3.279295481331723E-015   10.5302523609443     
Zr O
32 64
Cartesian
   2.61713024656074       9.297013953784145E-002   10.5029684335478     
   7.61814200597572        10.2304741622860       0.285650762582495     
   2.55179712876866        5.22034043301859       0.219577961980742     
   7.90117137362385        5.19295578310873       0.114303690641052     
   2.67930081701786        10.1758649982370        5.41068816181041     
   7.64602602238603      -1.360373190987863E-002   5.29668564621128     
   2.36472516653311        5.24581005065518        5.41303869893385     
   7.83765741933829        4.99949932375360        5.17807072629019     
  0.176968911996120        2.64491473559389        10.4447867337737     
   5.07459725234671        2.84677346017562       7.227438335078387E-002
  4.990473795428119E-002   8.02634364121936        10.5849788015389     
   5.11014453938283        7.67382168870880        10.4977545016135     
  0.219485851879631        2.52479766511425        5.29306528054426     
   5.10459824729270        2.58866727546237        5.27233411856100     
   10.1817193409689        7.77125181727474        5.40371780138202     
   5.05134188245616        7.72336790559547        5.31212539168101     
  0.114955601658598       0.119632763558037        2.63568687196228     
   5.10520803578389        10.3053325730450        2.83293376864327     
  3.286199973793674E-002   5.15231185879927        2.75413633258601     
   5.26013541706488        5.11749153261353        2.88249063525157     
   10.1818339266232      -0.103952512056946        8.05918743802973     
   5.20046481193489       0.113111225030840        7.91146611956542     
  1.392089416565004E-002   5.04734272265304        8.00458048285106     
   5.24309030803385        5.33290620132828        7.93768897725702     
   2.60278183980142        2.60524351103766        2.73698218706144     
   7.74934901890003        2.39622304893761        2.61390128192641     
   2.49905920225904        7.72985551570488        2.75336968138229     
   7.74644323354206        7.69254059531033        2.66804802158265     
   2.66356225900448        2.58821770423516        7.90285215950152     
   7.69947429925445        2.57294701402556        8.07629791018452     
   2.58135581179538        7.88949364516184        8.21995339900948     
   7.53768247092678        7.70614193873359        8.06254690188667     
   1.19560384659945        4.08625538678558        1.04031809287811     
   6.35670771493845        3.86150394344608        1.27857690909375     
  0.810183322633600        9.62366383680462       0.918453311217915     
   6.29947843934082        8.78716558955747        1.26990685872306     
   1.30465473731860        3.94085506464676        6.43264406544087     
   6.56318921162305        3.98178402537924        6.31111928450861     
   1.28304275345780        9.01582910793813        6.43182807714555     
   6.50497989723825        9.15537835656401        6.47716786042780     
   3.67686763082341        1.68727211193527        1.18224871621212     
   9.11364987132622        1.27986977664473       0.823456104002998     
   3.75241976012226        6.63947120035681        1.09854580925561     
   9.21159392520463        6.45139131569741        1.00144620209180     
   3.83160225490873        1.35292936828036        6.27953182704762     
   8.76519030478306        1.20566244265279        6.35302723199507     
   3.88325337427286        6.45774271699869        6.51835791483682     
   9.28486572742731        6.12435220602134        6.27363839502556     
   1.36203443874313        4.00943151063700        3.63813341598960     
   6.78503739949407        3.66269642073180        3.72533709279528     
   1.47474995003328        9.24630948190550        3.65306609439724     
   6.56115416238629        8.99110808867015        3.75147743555342     
   1.50437888604585        3.97260651639383        9.09188731480594     
   6.52167916014327        4.02855639192607        8.96244809035788     
   1.07664004907880        9.17598956880118        9.11384797169883     
   6.25272086943164        9.04127675574181        9.24250700403595     
   4.08321745798507        1.52320808482851        3.72808569318916     
   9.21353199769613        1.45797945729450        3.56763172255512     
   4.27650027935561        6.74315643877242        3.70210658269044     
   9.14835346943368        6.50458241522630        3.66677442657477     
   3.78272275330895        1.20728329333542        8.90624572653380     
   8.92046441754431        1.08654067913932        8.88749576116176     
   3.86427093822935        6.48040391598785        8.90688973560385     
   8.70191922926929        6.18601257756508        8.98299913603278     
   1.55927220079965        1.25452884283886        4.26182301893040     
   6.42344845997815        1.21471912450627        4.29221830847991     
   1.32633590457711        6.64418430906262        4.38610019855789     
   6.57480151445239        6.31627089012308        4.49585360986596     
   1.33675761201346        1.56459754087638        9.17041259175667     
   6.22616013162023        1.12308159378349        9.73618445857968     
   1.44435686118885        6.81582529306725        9.69261722376463     
   6.38569558845984        6.45037661439100        9.65306843216669     
   3.95802984310052        4.03088134609225        4.20090759131709     
   9.39588696602176        3.83994792486546        4.63521972886420     
   4.07189339422953        9.22635036921256        4.52378863708266     
   9.09481946000778        9.23749062078329        4.55852497498207     
   3.69888620119490        3.88465552898633        9.74421116827406     
   9.33437076199390        3.93480660585550        9.72738370598174     
   3.64696588203915        8.98873774464100        9.81197251692699     
   8.67030443988741        8.63274515569441        10.1493855139194     
   1.34406765099143        1.47353986772529        1.51654418664167     
   6.60368587712145       0.891951309961350        1.70143165148641     
   1.19539958232640        6.55164226778977        1.92675476329104     
   6.67829611293618        6.17742396612688        1.63191597562615     
   1.09914488593833        1.35981945542563        6.98138827758098     
   6.26762768326944        1.37139361304597        6.95364142921345     
   1.39815744203482        6.35474828315099        6.92729466664103     
   6.28826715551152        6.72346672894184        6.98943101350316     
   3.86195052571654        4.13294058549056        1.62521975282219     
   8.98553766659024        3.80648164205621        1.85658151655761     
   3.69036314017870        9.36182041136058        1.79820417093932     
   8.88724946869668        9.12107160302907        1.86401371193060     
   3.82986760852024        3.90871981405798        7.00382412472221     
   9.16302763163341        3.47530561226064        7.25981404068663     
   4.06233436654685        9.13177616429303        7.11586260016972     
   9.24271536740961        8.51667258016605        7.57098525813104     
