test
1.0
   10.4442189342361       9.440049337618099E-003  4.380939524315864E-003
  1.041259421038933E-013   10.3299792854405      -5.112045803603754E-002
 -1.144597761404226E-013 -3.335777118308855E-014   10.4986545709735     
Zr O
32 64
Cartesian
   2.64183728485332        10.1331727455862        10.2591711402981     
   7.73459776683017       1.546525530615367E-002   10.3050112364689     
   2.86368240519648        4.80269874924694        10.3873488445180     
   8.00372573166083        5.13141721208426        10.3355911304351     
   2.39586787449659        10.2753134114886        5.25384548360985     
   7.58797052768839       4.444814112368679E-002   5.06380654128292     
   2.77818309233697        5.09879023340206        4.94510362251155     
   7.70276890324084        5.42473181245125        5.10958366432732     
  6.891817201161683E-003   2.58511204657865        10.1894014534102     
   5.40874293909207        2.55414442682960       9.349367108525622E-002
  0.197580121298831        7.21679818682757        10.2424978901262     
   5.32675812938655        7.62719525062913       0.131371072374634     
   10.2993041144714        2.24631441005378        4.94671918916922     
   5.12847416549202        2.40158617176395        5.08635357443670     
   10.2217765268268        8.32829174594088        5.19398562032897     
   5.23572796670929        7.95763717918734        4.93161379278386     
  0.206559923035717       4.420075404158034E-002   2.28722911854777     
   5.29789235595112        10.1995682388348        2.31400373863434     
   10.4166872497083        5.35053061908151        2.77537553354056     
   5.26264486206538        5.30491659221320        2.52930474037311     
   10.3447545540944        10.1485247235499        7.96432326827851     
   5.13339292773257        10.1503110843831        7.95046588477550     
  0.280254441709807        5.29715152874598        7.33593426632112     
   5.19644126110923        5.19939483758608        7.61497491000177     
   2.69171891373880        2.40520121243336        2.38846746068181     
   7.92248714145231        2.68945400911997        2.48183730467318     
   2.46990488592333        7.42391925314648        2.46982991740162     
   7.99759272935151        7.61026352126387        2.39856525474908     
   2.60169666996879        2.42616329783739        7.44994526329545     
   7.67423058235768        2.77929608536133        7.43844900305356     
   2.91022786443898        7.60503008624601        7.82367309803360     
   7.97656480922077        7.73819873396649        7.77217849906174     
   1.78242593630235        3.14257215426106       0.761838755080658     
   6.74007286339049        3.89596256847970       0.758884073472213     
   1.15907398566356        8.73379650125059       0.822413347663339     
   6.36894310346844        9.05926226826854        1.08598864203976     
   1.16099545106282        3.74694878207063        5.95982812328217     
   6.31670470357701        3.86273767442066        5.74098355600007     
   1.10530818354458        9.42035658961831        6.32022760321403     
   6.33960562884986        9.23328332619082        6.10150594408205     
   4.01729914838356        1.07476473737467       0.565974643505836     
   9.41540457348828        1.14106104557854       0.736876868689656     
   3.93373193827329        6.44421257307628        1.33225272076377     
   9.28410211802517        6.11209406585836        1.12697359397380     
   3.73208399406927        1.19917499722923        5.92040289161360     
   8.66602043134019        1.67314180547385        5.92359632433224     
   4.24577240918152        6.53214405723097        6.41070073497311     
   9.30856228363203        6.67130059247577        6.28405248739077     
   1.89306290416875        4.15770203075646        3.23791023876519     
   7.12729251232046        4.34281478289960        3.37517430096506     
   1.13624710463237        8.88730176919819        3.65709757041531     
   6.62215837160012        9.19524450140936        3.55489153301160     
   1.00447854345928        3.64545267988115        8.61687256983231     
   6.38641718272893        3.90083630309610        8.79949951970352     
   1.34542538138084        8.91012240464981        8.78278472616181     
   6.45420624136356        9.04941317939793        8.81005947483446     
   4.14330108583906        1.20277643551012        3.27983239066035     
   9.30525305704263        1.48685679095768        3.45277703696072     
   3.77784787260279        6.46150689242344        3.75760873899053     
   9.00524029025564        6.61681791685526        3.75646766443031     
   3.27041793218581       0.842908601422487        8.58507217469301     
   8.64482555424448        1.29614974949546        8.64842266451066     
   4.08213655107528        6.19088036552308        9.03829411030871     
   9.21352506254080        6.42833076820200        8.85517570329917     
   1.36601228261586        1.37826131336369        3.69477400210064     
   6.80164677154062        1.54895442163001        3.89533923460611     
   1.00533694119147        6.40528235238108        3.99673688168143     
   6.31687021475896        6.59508415956105        3.95533557994056     
  0.759079976061308        1.19880146936650        9.23561157537069     
   6.05553845256777        1.11945244628578        9.32167197986964     
   1.55141107940210        6.08264801537222        9.21122980801974     
   6.77885217569823        6.52957451426082        9.26831876287983     
   4.31410416884481        4.14946174116668        3.93030161662427     
   9.56638270589027        3.89139668380541        4.00619757053071     
   4.08368353590084        9.05924471984528        3.94347584092309     
   9.29787517948510        9.54749832309583        4.18768556770708     
   3.75872725739056        3.35514979547381        9.37204472263128     
   8.87981387380374        3.77377327963412        9.16702865063262     
   3.74417532821354        8.71223132149241        9.36427588982288     
   9.29430036313903        8.87127246038130        9.22927835202037     
   1.63871326740108        1.00380984932648        1.25319737018298     
   6.96500866801404        1.24897273935219        1.31129003583217     
   1.39529617457677        6.04942580384967        1.31840446606312     
   6.63267166742513        6.57950549655348        1.41596318693405     
   1.29626765343514        1.40499533420755        6.32684257948186     
   6.08900093661639        1.40003383721943        6.55140793547725     
   1.62346472867566        6.43729738894624        6.64241544161501     
   6.63990693105700        6.38206052913144        6.75419310183801     
   4.23843457231614        3.73566757764417        1.45317181099947     
   9.42780119579073        3.85285008237950        1.15654034590203     
   3.82632631173421        8.85284608092275        1.47358308677073     
   9.03416121606067        8.93236342337464        1.36973118538104     
   4.02692016889119        3.88878696093110        6.40322803303092     
   8.82910591989969        4.16014428515160        6.54092707531746     
   3.86247067151316        8.91207498120662        6.66030490407565     
   8.93501735504619        9.47556365978099        6.70881706385383     
