test
1.0
   10.3773143799861      -9.813423401889182E-002  5.871138724390468E-002
  1.694378554420075E-002   10.5617570832577      -0.100521015737867     
  -1.77974171505633      -1.573868546124512E-012   10.5585286413349     
Zr O
32 64
Cartesian
   9.84024604244445       0.252514195854837        2.10157985934101     
   4.81706617760059       0.226545712041660        2.33311350800124     
 -0.229340917988793        5.59416404307347        2.28138354225370     
   4.82060475953022        5.57608922973232        2.23783293894004     
  -1.16876209980605       0.419010167502406        7.79041960866144     
   4.04575805134766       0.131834861217286        7.56620231378365     
  -1.17933359003242        5.58213514695222        7.47278508973359     
   3.85552095020207        5.59882220934176        7.73520945339585     
   1.54291906197026        5.01180430430645        5.30368339711673     
   6.56759338626171        5.14659272828603        5.56881152085093     
   1.44218968127582        10.3789368009410        5.30518729534927     
   6.81072099856201        10.3643714668854        5.33510782792485     
   2.26967774432078        4.95654897994323       1.024536904992631E-002
   7.51594080824117        5.15575931392629       0.172109638219311     
   2.40511895341504      -8.591212521278903E-003  0.190112471445792     
   7.20294690016083        10.4118197189549      -2.987044656884535E-003
   1.84889051459376        2.87090999996257        2.56799503014458     
   6.91576071808145        2.88583839696164        2.76812822270187     
   1.87570875739676        8.22671543076729        2.75056974627677     
   7.20514876854129        8.21835021894549        2.71722653533006     
   1.21131787501823        2.86495124068575        8.05317585681388     
   6.08573276788121        2.89754518014263        8.07934110154423     
  0.927385924161698        8.21856855483341        7.98962692728128     
   6.40814781408271        8.18912576942732        7.97958255476229     
   9.41735524293613        2.34918803536274        4.88568342257682     
   4.42250225748954        2.29086564678646        4.80928993965895     
 -0.772307308190232        7.87113925111349        4.87652865618020     
   4.43917051504195        7.78048037241766        4.82958163537632     
   8.54314130679330        2.43824936997251        10.1447548841123     
   3.45754788527518        2.48724709784257        10.3105485123604     
   8.55798218589053        7.74363177539503        10.2029542725873     
   3.31946367390922        7.84239874258094        10.2590796035621     
   8.47634509275547        1.71094296078962        3.05772272198866     
   3.69717737338898        1.82500894814698        2.94114332150231     
   8.81370421366759        6.94192622585464        2.96691349578850     
   3.69457985815336        7.20251181720584        2.85242153167171     
   7.76143830204326        1.81997567848153        8.41359140791084     
   2.94392457461506        1.92214400596024        8.29446896513057     
   8.02423335476646        7.28482466921787        8.05976551958029     
   2.78244899545812        7.30893075945883        8.00967871071463     
   2.60743162111075        3.48436534245295        4.58024973035012     
   7.81387208719221        3.48375525562147        4.70609771746475     
   2.66680655198794        8.94092760044428        4.48448337786372     
   7.83441013625274        8.77017201534396        4.59220302401856     
   1.79758516215792        3.41837608632313        9.91247019747670     
   6.77589704734974        3.60153288600474        9.82426243080909     
   1.53520994164354        8.76695177892313        10.0924373345864     
   7.13816716718145        9.10696167771509        9.79864388371676     
   3.07602673398862        4.45808281348251        1.72059979784412     
   8.40161982801580        4.20149855054335        1.80480880262509     
   2.96972521910212        9.92180077687660        1.93697447247482     
   8.04171027594299        9.64947714947828        1.86189813915443     
   2.08444204184103        4.46119156289259        7.29687372908895     
   7.26019975724634        4.40589297053211        7.48526483230502     
   2.29159559040168        9.84887074514777        7.37180222842010     
   7.30776383626298        9.64828797143671        7.14909300454729     
   8.59633051748117       0.702736006533337        5.84365168243216     
   3.18287292170560       0.866756648627707        5.62651455403579     
   8.31071283105872        6.17895090599200        5.65778746343098     
   3.03298114252352        6.42390317940665        5.62525990282019     
   9.04309151848858        1.01305373062604       0.495063513416945     
   4.08059390723666        1.01768904694642       0.564778083360596     
   9.16747926526677        6.28896463113018       0.187158669041569     
   4.04325065948958        6.21443253792113       0.102510541656820     
  0.421356388977503        3.98937442971196        3.57569546603536     
   5.44130874214288        4.01788575557622        3.74497683175907     
  5.222923957089570E-002   9.38039793432772        3.70030331980397     
   5.54352785841385        9.25804652901324        3.66321603343142     
 -0.752434740063005        4.04699652222868        8.94890568051951     
   4.62465107120195        4.21089434618326        8.96255877879789     
 -0.332650187659101        9.69114265446922        8.97654121158629     
   4.50555253746533        9.42919791733576        9.04318875831998     
  0.634000850337383        1.16827598187968        3.90857995792544     
   5.93976817630803        1.28826356485691        3.86425316471571     
  0.795127547835512        6.67206292312114        3.84122278218689     
   5.95992537597706        6.47759449840894        3.82653661160965     
 -0.191001962772077        1.56535780025347        9.29488124809530     
   5.26302495974196        1.33762545391735        9.40370233200737     
 -0.128520291219316        6.65658933259205        9.12174402775412     
   4.97877732108454        6.47753251759165        9.38303827500061     
   1.19531510335955        1.31660137322702        1.12923134622004     
   6.30989221155192        1.42411801395892        1.28545101466130     
   1.32201411389770        6.57357877457601        1.20989071130267     
   6.27284587178512        6.76488524820613        1.29291176269277     
  0.427149131987365        1.44173958729285        6.56682256595929     
   5.63171133568043        1.22529014516822        6.54071864881938     
  0.245087882081676        6.74290484350068        6.52778209012298     
   5.54604699779236        6.52076306662702        6.60622543918354     
 -0.237514429871525        3.90208899139003        6.20560159909185     
   4.86200926913741        3.82834121696048        6.24172041035660     
 -8.232822168882101E-002   9.26716938045354        6.29809783661739     
   5.07956901508889        9.20768413659227        6.14698493226392     
  0.639669204788658        3.93075622629727        1.00612996975745     
   5.85505637534753        4.13673620559318        1.13468074485071     
  0.557406620073425        9.34253960418786        1.05177020636012     
   5.65122690422903        9.25990018848895        1.04762934606437     
