test
1.0
   10.1490679534576       0.000000000000000E+000  0.000000000000000E+000
  0.000000000000000E+000   10.1490679534576       0.000000000000000E+000
  0.000000000000000E+000  0.000000000000000E+000   10.3472790428920     
Zr O
32 64
Cartesian
   2.53726698836441       0.000000000000000E+000  0.000000000000000E+000
   7.61180096509323       0.000000000000000E+000  0.000000000000000E+000
   2.53726698836441        5.07453397672882       0.000000000000000E+000
   7.61180096509323        5.07453397672882       0.000000000000000E+000
   2.53726698836441       0.000000000000000E+000   5.17363952144599     
   7.61180096509323       0.000000000000000E+000   5.17363952144599     
   2.53726698836441        5.07453397672882        5.17363952144599     
   7.61180096509323        5.07453397672882        5.17363952144599     
  0.000000000000000E+000   2.53726698836441       0.000000000000000E+000
   5.07453397672882        2.53726698836441       0.000000000000000E+000
  0.000000000000000E+000   7.61180096509323       0.000000000000000E+000
   5.07453397672882        7.61180096509323       0.000000000000000E+000
  0.000000000000000E+000   2.53726698836441        5.17363952144599     
   5.07453397672882        2.53726698836441        5.17363952144599     
  0.000000000000000E+000   7.61180096509323        5.17363952144599     
   5.07453397672882        7.61180096509323        5.17363952144599     
  0.000000000000000E+000  0.000000000000000E+000   2.58681976072300     
   5.07453397672882       0.000000000000000E+000   2.58681976072300     
  0.000000000000000E+000   5.07453397672882        2.58681976072300     
   5.07453397672882        5.07453397672882        2.58681976072300     
  0.000000000000000E+000  0.000000000000000E+000   7.76045928216899     
   5.07453397672882       0.000000000000000E+000   7.76045928216899     
  0.000000000000000E+000   5.07453397672882        7.76045928216899     
   5.07453397672882        5.07453397672882        7.76045928216899     
   2.53726698836441        2.53726698836441        2.58681976072300     
   7.61180096509323        2.53726698836441        2.58681976072300     
   2.53726698836441        7.61180096509323        2.58681976072300     
   7.61180096509323        7.61180096509323        2.58681976072300     
   2.53726698836441        2.53726698836441        7.76045928216899     
   7.61180096509323        2.53726698836441        7.76045928216899     
   2.53726698836441        7.61180096509323        7.76045928216899     
   7.61180096509323        7.61180096509323        7.76045928216899     
   1.26863349418221        3.80590048254662        1.05053896561015     
   6.34316747091103        3.80590048254662        1.05053896561015     
   1.26863349418221        8.88043445927544        1.05053896561015     
   6.34316747091103        8.88043445927544        1.05053896561015     
   1.26863349418221        3.80590048254662        6.22417848705614     
   6.34316747091103        3.80590048254662        6.22417848705614     
   1.26863349418221        8.88043445927544        6.22417848705614     
   6.34316747091103        8.88043445927544        6.22417848705614     
   3.80590048254662        1.26863349418221        1.05053896561015     
   8.88043445927544        1.26863349418221        1.05053896561015     
   3.80590048254662        6.34316747091103        1.05053896561015     
   8.88043445927544        6.34316747091103        1.05053896561015     
   3.80590048254662        1.26863349418221        6.22417848705614     
   8.88043445927544        1.26863349418221        6.22417848705614     
   3.80590048254662        6.34316747091103        6.22417848705614     
   8.88043445927544        6.34316747091103        6.22417848705614     
   1.26863349418221        3.80590048254662        3.63735860733945     
   6.34316747091103        3.80590048254662        3.63735860733945     
   1.26863349418221        8.88043445927544        3.63735860733945     
   6.34316747091103        8.88043445927544        3.63735860733945     
   1.26863349418221        3.80590048254662        8.81099812878544     
   6.34316747091103        3.80590048254662        8.81099812878544     
   1.26863349418221        8.88043445927544        8.81099812878544     
   6.34316747091103        8.88043445927544        8.81099812878544     
   3.80590048254662        1.26863349418221        3.63735860733945     
   8.88043445927544        1.26863349418221        3.63735860733945     
   3.80590048254662        6.34316747091103        3.63735860733945     
   8.88043445927544        6.34316747091103        3.63735860733945     
   3.80590048254662        1.26863349418221        8.81099812878544     
   8.88043445927544        1.26863349418221        8.81099812878544     
   3.80590048254662        6.34316747091103        8.81099812878544     
   8.88043445927544        6.34316747091103        8.81099812878544     
   1.26863349418221        1.26863349418221        4.12310067482954     
   6.34316747091103        1.26863349418221        4.12310067482954     
   1.26863349418221        6.34316747091103        4.12310067482954     
   6.34316747091103        6.34316747091103        4.12310067482954     
   1.26863349418221        1.26863349418221        9.29674019627553     
   6.34316747091103        1.26863349418221        9.29674019627553     
   1.26863349418221        6.34316747091103        9.29674019627553     
   6.34316747091103        6.34316747091103        9.29674019627553     
   3.80590048254662        3.80590048254662        4.12310067482954     
   8.88043445927544        3.80590048254662        4.12310067482954     
   3.80590048254662        8.88043445927544        4.12310067482954     
   8.88043445927544        8.88043445927544        4.12310067482954     
   3.80590048254662        3.80590048254662        9.29674019627553     
   8.88043445927544        3.80590048254662        9.29674019627553     
   3.80590048254662        8.88043445927544        9.29674019627553     
   8.88043445927544        8.88043445927544        9.29674019627553     
   1.26863349418221        1.26863349418221        1.53628068129280     
   6.34316747091103        1.26863349418221        1.53628068129280     
   1.26863349418221        6.34316747091103        1.53628068129280     
   6.34316747091103        6.34316747091103        1.53628068129280     
   1.26863349418221        1.26863349418221        6.70992020273879     
   6.34316747091103        1.26863349418221        6.70992020273879     
   1.26863349418221        6.34316747091103        6.70992020273879     
   6.34316747091103        6.34316747091103        6.70992020273879     
   3.80590048254662        3.80590048254662        1.53628068129280     
   8.88043445927544        3.80590048254662        1.53628068129280     
   3.80590048254662        8.88043445927544        1.53628068129280     
   8.88043445927544        8.88043445927544        1.53628068129280     
   3.80590048254662        3.80590048254662        6.70992020273879     
   8.88043445927544        3.80590048254662        6.70992020273879     
   3.80590048254662        8.88043445927544        6.70992020273879     
   8.88043445927544        8.88043445927544        6.70992020273879     
