test
1.0
   10.3136661797766      -4.491190127506088E-003 -0.277255036977405     
  4.803443664816930E-014   10.3115495619970      -4.332152856759019E-002
  6.354234294204856E-014  5.132579363639004E-014   10.4738585870730     
Zr O
32 64
Cartesian
   2.39911784857752       0.140331155314532        9.99589148845466     
   7.62681330613872       8.871485437291986E-002   9.81941182864273     
   2.45197617925125        5.18196724019733        10.2572895709994     
   7.66808619387631        5.25196937724106        10.0485647496475     
   2.51853868812158       0.116446311292575        5.45175739827557     
   7.50725602110012       0.297369223552830        4.86887904716991     
   2.33158444751498        5.22954587577346        4.74798971960789     
   7.78349946863218        5.27018662284637        4.71082635073434     
   10.1991816610397        2.65688463618369      -0.273040744277912     
   5.12633139688598        2.91781086243218        10.1031162688791     
   10.0957017398814        7.78362673981001        10.0343823053441     
   4.97729610788546        7.96548623547225        10.2718400415885     
   10.3087394161112        2.51883945299466        4.48678299896042     
   4.99611797316647        2.71823829004114        4.98215296237440     
   10.1043140710414        7.85143551737141        4.63905529490892     
   5.01526193768930        7.81524627839679        4.74926827925555     
   10.0145596234492       6.888461621559433E-002   1.94087879333426     
   5.03026679745441       0.123068342378655        2.22301834295389     
   10.0929503414097        5.44467102088990        2.16328380361105     
   5.12169115446984        5.10545525736855        2.24548540857415     
   10.1140013118483       0.154426715482771        7.22505974050295     
   5.11804282796195       0.291213239408305        7.87091960230906     
   10.0621487002830        5.66814138590945        7.36180144175991     
   4.70903686119541        5.56877762014617        7.66967008902922     
   2.53846503206313        2.61842891917131        2.34266808067629     
   7.67723138875618        2.63462968725311        2.21276762370033     
   2.41540870515123        7.82155271120698        2.58423726510397     
   7.54806030242494        7.89884824908013        2.26683043080393     
   2.54423151886610        2.80911432265064        7.56080784311423     
   7.87545602303898        2.78402906372144        7.18504230901753     
   2.35323653380163        7.71186007155869        7.46319534151341     
   7.60484260875387        7.85263394558540        7.16735565048355     
   1.53359331561678        3.66799665984263       0.457549109560879     
   6.41392889968760        4.09203558519674       0.991474892234244     
   1.16595192883849        9.02963443739615       0.536070330598235     
   6.32011939838737        9.15801083770741       0.901313118338141     
   1.73087576264768        3.55602789415209        5.63757931225937     
   6.61445564043353        3.89424072447247        5.74727914048500     
   1.04997098825638        9.11199142928753        5.84143701814573     
   6.12579058838174        9.00006749362042        5.99936907550716     
   3.60124912783974        1.53564605993336       0.768514834980285     
   8.73760048421543        1.30243224498542       0.622319498979474     
   3.83397641110769        6.32719488432359       0.926303372937811     
   8.98754955264524        6.47092727063735       0.701884012422741     
   3.79666047989379        1.53463802648665        6.12929291120845     
   9.16514479931179        1.49195230935859        5.77738265837406     
   3.70705304315491        6.26855069981126        5.88317632219854     
   9.00292380044325        6.62436177128426        6.05265513940214     
   1.16331850348970        3.83815298559776        3.00297825167522     
   6.65903990349417        4.06865201360905        3.31260176565798     
  0.714304358125633        8.92430813351391        3.32998884337518     
   6.07268094370633        9.23131088717519        3.51939531211995     
   1.55832620083224        4.42338492682277        8.42271269926571     
   6.26144180896062        3.70923608320787        8.42393136909023     
   1.60098900640416        9.58321711271482        8.19658930811131     
   6.38371038264379        9.26066080456746        8.52419138286224     
   3.97665513105200        1.51192699785726        3.49301715121441     
   8.81658501903869        1.33141904371968        3.12785846934452     
   3.73071155691853        6.74242275050925        3.52377814231192     
   8.77238264918484        6.53732458186821        3.37248681295236     
   3.65480476470422        1.49143022639022        8.72330273070256     
   8.77000576479230        1.27098454258894        8.36876948914028     
   3.50360864671678        6.76843911602395        8.78833716234880     
   8.87105854147204        6.29979210488105        8.76846897048096     
   1.09363870971248        1.20867461314381        3.91034852893073     
   6.32179882723708        1.43131104159480        3.89026123824188     
   1.21066266712493        6.45230407843034        3.61437697143370     
   6.41295166930989        6.48927977690627        3.63776459869949     
   1.03528693919796        1.57862006129837        9.26292507528921     
   6.04125306240137        1.28418964978148        9.31870639007083     
  0.724393543808072        7.15518406879686        8.66441656976024     
   6.19690739868506        5.98981928449116        8.94767471454161     
   3.84936426702561        4.06846598695607        3.52283557345223     
   9.16439810456992        4.09043049783845        3.53269711685880     
   3.28407290418888        9.08768914079696        4.00361093205089     
   8.48607995204767        9.31724429902689        3.45905931751782     
   3.99164821479000        4.24965926001598        9.20110397351762     
   8.72680497150852        3.68355415610606        8.80803254302758     
   3.86606296535835        9.29247215328898        9.27804847653835     
   9.04474541508683        9.00738290279226        8.61956321782740     
  0.813378352880083        1.57437221159279        1.44379296917323     
   6.36810738957648        1.60141638828435        1.11567994851103     
   1.28629978930799        6.36421137196895        1.46947044892342     
   6.35072203164725        6.66233235451051        1.01742264416042     
   1.22970835920888        1.37702896877728        6.58625587701818     
   6.55478794765551        1.08238219086007        6.68173007137420     
   1.06239427390132        6.30765736348564        6.26552304685617     
   6.39884774616448        6.40009742972410        6.34186403230446     
   3.90031988390431        3.85609460366220        1.10505769288713     
   9.12276655943661        3.88808485001976        1.05955279034530     
   3.95075592221342        8.62399681363609        1.45726494539467     
   8.99046239948841        8.99258119032841       0.874384064464468     
   4.04115105921163        3.97059258929334        6.58965139129149     
   9.31105462200908        3.86641472340542        6.18766282483817     
   3.71552813041791        8.94153632950798        6.58718909741954     
   8.90495522516166        9.13419732672822        5.99534968995749     
