test
1.0
   10.3413553736281      -1.546318552034096E-002 -0.398416658134090     
 -2.254431908853720E-012   10.3483346322204       0.135226842481387     
 -1.467342669603074E-012  1.243810018761546E-012   10.5226421858026     
Zr O
32 64
Cartesian
   1.90897155230098        6.46216643337767       0.765192027651355     
   7.08666878515618        6.94914639999655       0.291034541941373     
   2.20097533984041        1.10631089046290       2.798559333800093E-002
   7.11913735772811        1.59175519654399       0.169204709081281     
   1.98943296803477        6.75294151082872        5.91192870658882     
   7.21397215910213        6.65484760208374        5.31354335560731     
   1.82045246622578        1.52492102197700        5.33510411795952     
   7.26977478971883        1.21773567875777        5.25745961116967     
   9.76984142732067        9.00401927000181        10.1523110227864     
   4.36481888079348        8.91289418632020       0.507442947296482     
   9.60240655119273        4.16513645738081        10.0768234999226     
   4.29888067312617        3.75556123896871       0.497847014160086     
   9.69336012654191        8.95397612651126        5.26869279600305     
   4.58061736263229        9.29635137607103        5.49265334848256     
   9.63585687192687        3.98778489217285        5.29159804426753     
   4.77384133394663        4.04011159480511        5.52740221160168     
   9.72639365720581        6.34015883920101        2.93270965448999     
   4.35412991846949        6.59311078353478        3.19360814836956     
   9.46900214046838        1.60221129709315        2.32363444286351     
   4.67021788355543        1.51347022726695        2.87122070727580     
   9.53437124842203        6.48984236913137        7.73386358976149     
   4.71175449785751        6.87883375040175        8.15879476913204     
   9.72959463440731        1.39929669204825        7.83393059499715     
   4.70204535727553        1.47073032727618        7.87152023898434     
   1.42888627365977        9.12554232408440        2.80885028956434     
   7.14664097240013        9.33081553071607        2.65020963093861     
   1.68234074304065        3.81366406690320        2.77728254490184     
   7.14710708825606        4.29631221598957        2.39150123218890     
   2.43286717778238        9.48501644595268        8.06655641405412     
   7.08262585359574        9.52353345555217        8.19661279009108     
   1.96202380566163        3.90415842901930        8.60293470325531     
   7.02064344809863        4.12063455405805        8.37538760017604     
  0.204926819716856        10.2302236172874        1.62634863121604     
   5.51140201959532       0.215994682396848        1.20661803198401     
  0.468397633402732        5.12905391124602        1.44830982756322     
   5.90043678531099        5.26119577622611       0.986465910069083     
  0.789049619092640       0.107979320990587        6.48033052947994     
   5.81604451953583       0.251168948981355        6.47949435291319     
  0.206321628580676        5.81133268727739        6.49824890493228     
   5.44340419965295        5.62780710815016        6.46169637448942     
   3.07176403231400        7.64472513616997        1.79064052483853     
   8.21400347953475        8.65175214931283        1.10556927664675     
   3.17544103562322        2.49263158026402        1.86920261079600     
   8.19448807984695        3.13250680166451       0.769632591256235     
   3.30551851304784        8.15335041773731        6.91353549350552     
   8.93204878539014        7.23781288621069        6.03774462588084     
   3.29962630848818        2.98879351101998        6.93131381375668     
   8.50734552029006        2.43294523459234        6.52914100785388     
  0.772786425316715       0.351063131367378        3.78035967495541     
   6.01466075373849      -6.298283549747204E-003   4.15409300202971     
  0.765602588641432        5.15733904243875        4.16593809722778     
   5.77592415307660        5.10770625661632        3.95883003099833     
  0.871015457663029       0.259609621553276        9.20685311463370     
   6.23249514515640       0.498297564761695        9.03915490286334     
  0.116187380273340        5.06170661303562        8.94177543132558     
   5.53749335394509        5.55082973774850        9.27790439251898     
   3.18116573644392        7.95007008122171        4.13409997874793     
   8.15995492253846        8.06461907192474        3.89324946403161     
   3.43563710518000        2.99712792160384        4.17264592989904     
   8.45025991528560        3.10904822788486        3.43983930192674     
   3.35874781119166        7.42709842278475        9.98620167071695     
   8.42569054635739        7.82726174582802        8.97270120129988     
   3.37505944534631        2.50928279545032        9.51384714528571     
   8.53437227630567        2.76906598999348        9.00725939953653     
  0.538434163378811        7.76553548780973        4.32917549665241     
   5.78966766999344        7.83920070708485        4.29442273651742     
  0.518817746125355        2.64339116477592        4.16637790682558     
   5.79904520013364        2.60622348430624        4.20755560348668     
   1.04202329351167        7.80916637024086        10.0302309652175     
   5.69278173737163        8.31517534913789        9.64966367764565     
  0.806768600281568        2.46707724071643        9.50055419196904     
   5.83291761167752        2.87343262282996        9.58959951168153     
   3.43224492089625       0.401088412265315        4.30145618745619     
   8.80310222733288       0.399278942681731        4.02960096405519     
   3.34102240585397        5.62361614025141        4.83188163897888     
   8.40569025452745        5.55515751766896        4.35235656897381     
   3.55852120849185       1.615167106090415E-002   9.34629661678300     
   8.87204920241017       0.367346561413419        9.53467950060575     
   2.48938621287095        4.64799521073956        10.4493026683724     
   8.35951011681954        5.33735356961675        9.39826167165395     
  0.393007299700188        7.43314227478947        1.76916396630470     
   5.63622308148049        7.90175843947640        1.80237434573088     
  0.682234986815250        2.32035936388172        1.48602576927238     
   5.69541530505017        2.81274127783075        1.47102437942729     
  0.603272051215768        8.11349099547071        7.34765516441169     
   6.17091604386389        8.12756961684782        6.99413293138075     
  0.596325067919197        2.84564580818435        6.97773563757787     
   5.84705508853450        2.74738628354817        7.08561137065070     
   2.92356792119172        10.1534725741705        1.55754772043561     
   7.85474026111833       0.787817656939465        1.86114303536203     
   3.20504415016408        5.09535837961171        2.30421620368459     
   8.06181283338467        6.13358376799255        1.79048713368128     
   3.41049275799785       0.318921856638805        6.85937454149833     
   8.47764288851483        9.79295674456055        6.79112239565657     
   3.07124338290974        5.93132036412100        7.65364545347002     
   8.18857922887418        4.85907395467193        6.78514493265873     
