test
1.0
   10.6488354174288      -0.201052694489209      -0.372248837305745     
 -4.228027423565952E-012   10.5344582624517      -5.162554793783099E-002
 -1.069094852056968E-012  4.528876506489357E-012   10.3671193027670     
Zr O
32 64
Cartesian
   1.45469040266128        9.27527744886403       0.249362707524655     
   7.16754946932460        8.94492895577337        9.93941486845112     
   1.93931330010484        4.05984748190599       0.137602995125966     
   7.38002077362135        3.80917689443340      -9.335239771637234E-002
   1.12546295367720        9.34261727445083        5.80586964604739     
   6.85091413701064        8.97339486789689        4.85859176444987     
   1.63356599008712        3.94044253187390        5.40490997046284     
   6.69883828816146        3.67734848530571        5.02614905405938     
   9.91250780407646        1.09186211367830       9.488835621946211E-002
   4.44953823434720        1.23022344107717        10.1288231295382     
   9.82178748796269        6.27590893337327        9.90070439312384     
   4.38287024493176        6.99123554220845       0.236623739531406     
   9.81216372354717       0.958591547218688        5.14977275155613     
   4.53850557538270       0.890498464079831        5.06442824318478     
   9.48660266381418        6.27591374940893        4.94602870053752     
   4.42494863892167        6.13449481997035        4.92766314653359     
   9.43222747938467        8.99545996943770        2.37822409876334     
   4.74913337304104        9.27177801094660        2.45494077104426     
   10.0679470838297        3.56356405294548        2.33806256847882     
   4.44409296410339        4.00384458804294        2.37436519870616     
   9.53985430691391        8.79182091450207        7.66104865307178     
   4.51131834615774        8.82105038959893        7.71761459225208     
   9.28987633772240        3.91493842762616        7.60645333975462     
   4.30417971728312        3.65381557263635        7.82874866572326     
   1.97722485373042        1.22147152995807        2.92499318297911     
   7.03252850054404        1.22814605313903        2.48498839704905     
   1.96373078837621        6.42487116192066        2.85565722875022     
   7.31010295564404        6.32500325536098        2.09588775857105     
   1.57080828031189        1.30916540427383        8.37789185511887     
   7.30285097030301        1.21252450865455        7.58859580490101     
   1.90241911195242        6.74340578651407        8.14696809973375     
   6.58068878798139        6.31409454812051        7.53043163750550     
  0.685621209020201        2.58629539073591        1.46196895018942     
   6.18024825312965        2.86569767350381        1.59431339322974     
  0.248260085173632        7.93968872964964       0.987104270328565     
   5.96204445483514        8.04148488436667        1.14931231561763     
  0.870837006847533        2.21011215390506        6.45304769425492     
   5.82451110462203       1.932190388530418E-002   3.91103883825203     
  0.790418486429461        7.61272706143985        6.67567789958211     
   6.06827832542887        7.59799263338611        6.09351715681839     
   2.59713051869844       0.553224949408834       0.961030132530676     
   8.42205796953036      -0.104974386680563        3.70251054483045     
   2.87583353259516        5.62168212988862        9.63300326324255     
   8.71063176624462        5.01804383533536        1.18684876723363     
   2.96651062611899        9.90809919564139        6.01377101986886     
   8.22273518245362        10.2928458463625        8.72869851579248     
   3.35503539396623        4.66336963601564        4.02632802272038     
   7.88468206782315        5.18082581922235        5.98536071883432     
  8.809359689663648E-002   2.24531390320050        3.80758910076846     
   5.80152820791584        2.13548864325896        6.28927898747982     
   10.5691404173924        7.87628903154444        3.53271635996307     
   5.36717941905019        7.64993512011775        3.42757499372294     
  0.213772164863682        2.34147723820487        9.15254479584933     
   6.25895285268861        1.92723799682896        9.53086569348798     
   8.02749425482093        7.96781881587412        8.50591773862954     
   2.62185505263218        8.44040675268067        9.02854239959416     
   3.17303906292096        10.4383322234334        3.60706139462939     
   8.25640790985958      -0.113530160113786        6.31542762166262     
   3.71396609622852        5.91180517374759        1.84771306496928     
   8.62356090466552        4.91284887450889        3.35428362704209     
   3.19158099820315       9.245632229595634E-002   8.94780641082413     
   7.76852391393775        10.0482922045340        1.25268081902359     
   2.70001448919858        4.52399514105864        7.13645951346405     
   8.54018449643072        5.68374041536046        8.55463830912055     
  0.163357104058061       1.864789645456187E-002   4.33299070587720     
   5.38995094751555        2.81889065438681        3.93193076738426     
  0.905560964590359        5.33248546528426        1.60595875137981     
   5.87727297369380        5.14556047558099        3.58253697402066     
  0.434518146067526        10.3351617964383        9.33135344437920     
   5.85700677121938        10.1998334878742        8.94708390282925     
  0.147312697338861        5.28407949696851        6.93152374551421     
   5.66192062169145        5.04590296787323        8.66539868019476     
   2.67460471190305        2.11889459316679        4.72464554788698     
   7.76293030641092        2.43567270292430        3.84093863140746     
   2.69870070110440        7.23052812015132        4.52383853679418     
   8.03643845879587        7.56693159079695        3.80246745599456     
   3.79032551304704        3.00394759096591        9.84863731875210     
   8.40248978094254        2.88008071530983        8.93418921855919     
  3.866981898175289E-002   7.56332088837363        8.86555894157968     
   5.62980073964771        7.63225428718914        9.01019586789078     
  4.546505021818607E-002  3.840414501432562E-002   1.76179831048808     
   5.31078374089927       0.480256707382360        1.44206747484354     
  0.345172373292726        4.66036110363249        9.36940433841775     
   5.91914165220533        5.79622498720643       0.703636654354615     
  0.270188416527488        10.4757522464399        7.00999181735287     
   5.80104995912415        10.0964566311340        6.20218447112763     
  0.717685465193742        5.14419772000611        4.05749527774073     
   5.41078877976101        4.71399218130837        6.22744334655613     
   3.02704550021611        2.90403636050073        1.86696316713842     
   8.66157638531686        2.50865312842036       0.908318727695669     
   2.99264173384841        8.57136615704868        1.28094881812315     
   8.43605404292189        7.42774685918540       0.848945050471868     
   3.16440670589774        2.09018051292784        7.28636712996377     
   8.72849698555228        2.47105718085080        6.16214466475709     
   3.50175275939552        7.05308732894587        7.06303482389220     
   8.71921066821168        7.91859298318179        6.01995949161370     
