test
1.0
   10.4284330735416      -0.253114607614122      -0.118139985045117     
 -3.701252419996336E-014   10.3291676511781      -0.370432218691938     
  4.856882723322240E-014  2.471951114523384E-014   10.5046048590021     
Zr O
32 64
Cartesian
   2.62535452336374       0.148478158937833        10.4330807545061     
   7.84512379963772      -0.135977544569902        9.96385076617245     
   2.54157614693958        5.26539859243136        10.0816504587074     
   8.08005023050162        5.24468203326246      -0.280925324501657     
   2.31313183016981      -3.959862765353397E-003   5.13532554408916     
   7.63724803984737       1.938260494230249E-002   4.76473189604581     
   2.33179138595443        5.17731535028216        4.97331816710069     
   7.95657676907563        4.81622520082559        4.92372216937218     
   10.4045764119420        2.42952371898812        10.0094362670160     
   5.13694253120041        2.67300155567241        10.3274908588864     
  0.337907752495454        8.05350013950223      -0.259682276581258     
   5.17774955932833        7.72507249317116        10.0519117581927     
   10.2554199783437        2.24937054142406        4.80210262225883     
   5.24482387336899        2.63818491502924        5.05802589661504     
   10.2517231286497        7.54129258024370        4.59179436345371     
   4.94504115593219        7.69298325012734        4.99723315107659     
   10.3813921709639      -0.126011363813563        2.54081987802519     
   5.23914343609271       6.228562243896330E-002   2.42521479697694     
   10.4176400466643        5.18322709959187        2.23765801112321     
   5.12239072801519        5.26616370846427        2.63532539811705     
   10.4111580318545        10.0727977535004        7.19469684666497     
   5.17290262119200       4.372943660743972E-002   7.62696323490981     
  0.207726324687041        5.30151525666732        7.57616371722757     
   5.12265718757989        5.30983575105326        7.83104569043542     
   2.61828635880681        2.66631419798393        2.36239172235579     
   7.80594640696187        2.52086821983211        2.10584432924119     
   2.74858747535459        7.93259320023198        2.17650033560147     
   7.91926987246423        7.86703905980497        1.82815963179054     
   2.65960368649598        2.51211280410191        7.40632696823509     
   7.60021038019285        2.79595158446317        7.74160815181255     
   2.41548968204385        7.80697734526209        7.34567510757065     
   7.95011983370725        7.54770098346738        7.54013948197240     
  0.936984634099749        4.54903208620251       0.760671160334912     
   6.11341968996129        3.95311584860702       0.987089576479120     
   1.47205720753019        9.39149721400360       0.800611609779142     
   6.80995530617440        8.90898707655900       0.162972665985679     
   1.49391335130451        3.72135970703588        6.00187503919302     
   6.73187425541092        3.81093891136127        6.21568112358697     
  0.991610008878729        9.18526180269025        5.93058746191348     
   5.89142351255614        9.24968049910512        5.41057965004456     
   3.93412833369978        1.30541722662004       0.763812978115886     
   8.93164335099353        1.39520135816243       0.529160987239097     
   3.57080465056929        6.66180897300354       0.622134373275202     
   9.10611100271890        6.73417501362680       0.505014909635439     
   3.83855663715831        1.34418525888561        6.02371302864818     
   9.09744931501238        1.25337853180046        5.92482616083248     
   3.44543802908632        6.68062836927490        6.03802273499868     
   8.93241360462870        6.39907113371678        5.56142446980977     
   1.37955582886016        4.04313124100287        3.31458988398521     
   6.56031060510063        3.87617595300061        3.71183934714470     
   1.44279003468127        9.16659452611695        3.32581996332691     
   6.79745234408422        9.28833810180756        2.93091305254343     
   1.29088303274916        3.73402653282046        8.52203583531592     
   6.59650768575571        4.00843126974478        8.94305283546481     
   1.47472570641467        8.76658841994398        8.86111367001913     
   6.90382183844323        9.13299762414265        8.18503773612906     
   4.17794101974166        1.43823805439089        3.20876692846338     
   9.20406112454407        1.37765258216420        3.33074042379495     
   3.60584835794579        6.36688661170289        3.30107702589103     
   8.92445179670878        6.53414392138139        3.19424851551517     
   3.48595361632108        1.23944749053244        8.76438073980530     
   8.91060142243858        1.05485368323646        8.44164599001952     
   3.63874080563834        6.51934602248406        8.59077692880848     
   9.38776815626598        6.32741877296380        8.21107880252065     
   1.43704577391705        1.39501775064131        3.91716144139372     
   6.60908234083532        1.40419052410962        3.74586184445093     
   1.03928496404482        6.32509433404296        4.06969210988154     
   5.94785908929826        6.19708375867894        4.23126771058883     
   1.05635997574605        1.21594483296481        9.30177118385373     
   6.01753825491021        1.42798854038536        8.94789190141344     
   1.23391752077940        6.44141645360626        9.24160272965112     
   6.64934860713419        6.64551187890937        9.00258732580108     
   3.56043190819313        3.71620986117565        3.96927472464036     
   9.11247725473209        3.49044784276871        3.64186640545531     
   3.70415424672347        9.14830107011199        3.87707837794472     
   9.37901791199571        9.23903614117235        3.78849951126192     
   3.84997984057636        3.96221955925426        8.95078644987359     
   9.09313190309526        3.78007934171103        9.16380217709608     
   4.47484538750433        9.18180617430916        8.96778428687321     
   9.31881493106117        8.75492315071291        9.09824436909902     
   1.33193492027973        1.45074002983170        1.63247168126855     
   6.40292355741119        1.36293527508351        1.21452110521657     
   1.07641994674176        7.03884858455032        1.58228936475696     
   6.44430645282102        6.58806106448389        1.42005508301526     
   1.00565308227356        1.39509250498351        6.70179087472643     
   6.48685095635140        1.47115678091608        6.70738556569507     
  0.941262187044040        6.55847793382492        6.33968760417364     
   6.14739750852310        6.93242414235690        6.73369492485688     
   3.73032356091844        3.96571336390499        1.22079147216875     
   8.75292563377760        4.17454536828918        1.32361816018427     
   4.06435308151031        9.20941713168389       0.961341354830283     
   9.36374178722082        9.14983409966491       0.971597067957506     
   4.17238257389899        3.95672313853413        6.63541534372028     
   9.09044177382651        4.19363024255509        6.61922162245872     
   3.47664496540026        9.25027863186427        6.41599809817339     
   9.01738589859779        8.86544686011494        6.16625289207210     
