test
1.0
   10.3819890826004      -0.339194392140174      -7.650667461697535E-003
  1.700365026598476E-013   10.2245568651308      -0.195872574748694     
 -1.281310984971729E-013 -5.926030448869074E-014   10.7345952343137     
Zr O
32 64
Cartesian
   2.80683646323611        10.1045640395615        10.0497719425143     
   7.99565602050058        9.68994051983502        10.2470509372736     
   2.86636177566197        5.09737939612428        10.0557605026138     
   7.82833328736549        4.34864376227105        10.1145823598228     
   2.97139909028883       3.616207547653786E-003   5.17499534610389     
   7.99131038357888        9.78899688531674        5.07347173841418     
   2.54332462770113        5.27908600950533        4.80586221504065     
   7.73422651659113        4.76926617399964        5.32713105138239     
  7.919967275891840E-002   2.44353270323102        10.5589383899597     
   5.37617928223739        2.36608153415247       5.378543790045815E-002
   10.2405657743462        7.09022683457442        10.4946617564898     
   5.22649731190975        7.44113831819939      -0.144218714564781     
   10.2598045920018        2.54827606655109        4.71188391975955     
   5.24111230626371        2.68435384996613        5.17747292274777     
  5.490247137890962E-002   7.77548221255262        5.10357332995333     
   5.34395870606890        7.59537341767691        4.89287350864245     
  0.141757071265615       0.147063727370682        2.54171379346957     
   5.26548747249526        9.92860392399778        2.32500465871556     
   10.1003077913465        5.10361422028199        2.58077815451043     
   5.03322342234021        4.93159444400343        2.48552983242205     
  0.431174966682472       0.266859810740687        7.62243160956917     
   5.76137719366200      -9.069151749132863E-002   8.09449033193818     
  0.334494647128590        5.23822717297324        7.46382812220402     
   5.38535901584407        4.64106330774827        7.90116539710337     
   2.61179811185601        2.22205971776763        2.19890906815073     
   7.92549298750205        2.34492816177092        2.47903632100982     
   2.47766296072044        7.52030201453861        1.82630812333707     
   7.70152072878842        7.22244034348129        2.41302652024762     
   2.90481921155959        2.51066106548978        7.83631648204752     
   8.30970445678353        1.96049344409348        7.44153894278379     
   3.02864219132644        7.86453441981157        7.70948885491873     
   7.88088849723546        7.03427999964839        7.71875776494197     
   1.67908809458628        3.66435932753233       0.370671258514403     
   6.61966743030715        3.60814904982321        1.05267087882270     
   1.56670966452147        8.51672362406032       0.119832748014435     
   6.73407481959999        8.50814198251528       0.808169034213851     
   1.33039457963295        3.98737383591482        5.83658092957559     
   6.87149529735034        3.30820220034328        6.20381699620547     
   1.69749361995581        9.13420042112297        5.54271503368314     
   7.09515638088148        8.04780300973779        5.89918230128478     
   4.15059310719541        1.00019684466987       0.764778984477220     
   9.18193274759514       0.932580776716857        1.12722249931171     
   3.74330533886512        6.22319049323341       0.840639213463800     
   8.95748698858933        5.97468688996782       0.802024945798464     
   4.24775617149360        1.37690828444914        6.34606452445102     
   9.35105285425213       0.758798803037546        6.32243366747246     
   3.68646967177087        6.70036057672448        5.92230792409537     
   9.11146909800375        5.99766597406877        6.04374272086487     
   1.24525051386316        3.66412586873851        3.10540171200499     
   6.37829773409643        3.65235830255574        3.60678397890504     
   1.66511703113285        9.16321537648311        2.89988594851510     
   6.84172923397173        8.74602018744183        3.37516420349366     
   1.91152678112691        4.06587867173438        8.12840586230468     
   6.54893723533967        3.26559764992460        8.82716210381299     
   1.59575737391569        9.10371028475804        8.36359593357676     
   6.34731094603811        8.45141384592508        9.04715599529196     
   3.97092000113341       0.943519018172109        3.29742284161636     
   9.08470028049780        1.17303407163320        3.79628642910494     
   3.96075305595130        6.31933068527275        3.28646116771433     
   9.19119915743711        6.84998855043806        3.30289455536566     
   4.19474199289627       0.825656286955352        8.94932515276519     
   9.23641153978651       0.413236895134812        8.93853971041504     
   4.09509767302136        6.14862782122975        8.72417850310816     
   9.35899079854098        5.76229543181285        8.87237046639804     
   1.43643752151555        1.28363431798208        4.13330560332289     
   6.65205306528270       0.956423837581906        4.00876735509268     
   1.02505769092592        6.24437348718381        3.97690573016787     
   6.80618863059349        6.18330130938705        4.02770170540358     
   1.50956666591658        1.48282570258559        9.26581317126941     
   6.96749539206287       0.897784024625189        9.51976334716166     
   1.23427562442304        6.23153706780078        9.34952705840618     
   6.57694201298581        5.71149343874184        9.37291843596137     
   3.93484528169800        3.86123875710882        4.05606423013178     
   8.97629451211003        3.94647994720499        3.86533624898022     
   4.43576405110692        8.94004439500707        3.97515278804939     
   9.82189477425134        9.09258514016238        4.17093778856792     
   4.09729356404978        3.55502516844863        9.37297083941589     
   9.17741019316288        2.96797602914981        9.21965211222702     
   3.84948067457204        8.49759424184828        9.44107209376350     
   9.01151890194092        8.30333291488316        9.35828335422616     
   1.33351641416634       0.894019843218246        1.11340484263281     
   6.41594984796682        1.30185851642276        1.51182178392201     
   1.15358616401476        5.95487586347297        1.19326315520074     
   6.16005325845711        6.28863965204259        1.62694454699579     
   1.57917514937620        1.58269029086316        6.60383040222052     
   6.98650883793377       0.667414706201695        6.67528523705589     
   1.29603818462854        6.62854784644701        6.37412103519990     
   6.67029633477672        5.81698403376842        6.77849553281022     
   4.05291839490531        3.47518443541398        1.45195159337220     
   9.38969104582736        3.43526723784833        1.49145350589720     
   4.08252414062951        8.84585008967341        1.36962228628270     
   9.08073832518749        8.63150978873855        1.26126084233600     
   4.16783614965892        3.71353163145100        6.62978954401579     
   9.28644281889702        3.30786609709291        6.58325990158937     
   4.54172822391664        8.93377307841484        6.49540708110256     
   9.37391315215203        8.72060651785364        6.91230840950413     
