test
1.0
   10.2329893222929      -6.933026516460293E-002  0.276025260495042     
  2.000667403042927E-002   10.5254388060898      -0.118691964662096     
  -1.80478014093918       1.777958438801936E-012   10.7070720698312     
Zr O
32 64
Cartesian
  0.159200475900631        10.3948835482489       0.721081448269643     
   5.15922779144685        10.4086065985602       0.918892415760200     
  7.410837745872215E-002   5.30756411309675        1.03679554088477     
   5.33576005262254        5.19257764209724        1.08340894761134     
 -0.988970104223906       4.695728240138031E-002   6.39348541953191     
   4.58732516010092        10.4541757087002        6.48640502571378     
 -0.746452147004819        5.08253620208697        6.22890046529224     
   4.34533391894076        5.05869328765395        6.39640829207430     
   1.67842704654957        4.62546079843079        4.07049606306432     
   7.08833352255977        4.81237596424979        4.12644392498920     
   1.89112072094296        10.0146074265073        4.29094303646596     
   7.04655197878591        9.77652073385185        4.19101657948882     
   1.05486026249951        4.69799874704276        9.34005249467695     
   6.11479043543866        4.67390761772190        9.58948233908498     
  0.770560720417500        10.1507576205308        9.19345815187458     
   6.15089233635251        10.0090282668202        9.69738107212502     
   2.41808855299928        2.77349073692570        1.30613594448515     
   7.53890709314500        2.34421076515320        1.76492739811599     
   2.40516451673475        7.67958550150168        1.82863597445280     
   7.32270641024726        7.70812570500431        1.43772223099523     
   1.51222096150375        2.45906371369871        6.85044955056965     
   6.47104928992134        2.64597140356633        6.64091446621571     
   1.39067066277094        7.71580993006745        6.72689574883972     
   6.68361528929111        7.63469390596360        6.86409022104771     
 -0.446094792778592        1.99070103385011        3.67662203877761     
   4.64997929027317        1.99592046855807        3.61371044555981     
 -0.521592688115056        7.47132029444539        3.60338548494800     
   4.85744155801271        7.29416836246446        3.75738171469052     
  -1.39948455542211        2.31835458648890        8.72872442942345     
   3.85297819085164        1.98185668230700        9.16319701546473     
  -1.16762660219181        7.40805017484613        8.91612950653084     
   3.66080554593399        7.40341251619072        8.98344829334538     
   9.07446179910317       0.951034493934902        2.14922000570495     
   4.02437420673701        1.61587671672751        1.46467291673357     
   9.05517719792616        6.67146529001454        1.88761656032141     
   3.88631371127711        6.34598559959840        1.65411268302144     
   7.97396699312515        1.27176518183995        7.31173923022760     
   3.34300528520271        1.44463779958972        6.88812231700991     
   8.43191835365528        6.70338697005551        7.18386407411005     
   3.18391020930849        6.74888532820199        6.96730513239753     
   2.85608616480061        2.97097632738884        3.51101033518508     
   8.48390458585473        3.35726193190835        3.59086186761388     
   3.30021609456348        8.63177997006198        3.31379599721636     
   8.16730472461710        8.55636976171254        3.22867712024228     
   1.91981328580026        2.80038220574913        8.80291024460487     
   7.29428147279736        3.55147067774056        8.30630389488866     
   1.80484789410682        8.33078854217038        8.67076359867259     
   7.25439903812689        8.38991249796417        8.86207118282963     
   3.62201617215367        4.16662683673806        1.03383046167426     
   8.71606530085902        3.56644582094595       0.671365779607436     
   3.57320961089807        9.31531220663951       0.887372257059729     
   8.47738079569829        9.27854050364608        1.01801550388874     
   2.50857889095096        4.11266568360107        6.12956242317734     
   7.85471774229466        3.76398054433017        5.87965486438077     
   2.55657046439228        8.90332535833861        6.20948685087055     
   7.86311337399411        8.98774366047968        5.95840201128352     
   8.45880305435072       0.607459546050681        4.80765345093270     
   3.80810919095866       0.402315418378207        4.35075532077730     
   8.69716320267269        5.88589858892522        4.65707752746011     
   3.50281117506313        5.62816596847779        4.10113849437557     
   7.60115838698892       0.811132909292636        9.98475771424292     
   2.51156381034974       0.473257284231274        9.80399038008404     
   7.65994285423099        5.83371999660014        10.0234224389696     
   2.73381137874059        5.61349507026516        9.84510348154822     
  0.651237436378236        3.73207167418240        2.42380259708488     
   6.05792896741885        3.56718752258351        2.38769514066939     
  0.858341695100296        9.02351772647316        2.42748004659514     
   5.91933420920630        8.69949997448123        2.47015288427177     
 -0.155371957020941        3.51664147657187        7.55288295788011     
   4.60891482355866        3.48559219396952        7.62691353618399     
 -0.522262362801092        8.94242959417839        7.50823475864423     
   5.02983631049374        8.88839991348385        7.80058852581015     
   1.12133068680779       0.899856427053440        2.63163999114343     
   6.27072910728388        1.02626686016772        2.81417737142594     
   1.08371335454962        6.37850454144453        2.63934026161006     
   6.32294950317757        6.18682372459217        2.75474200420235     
  0.146652016095739       0.912026818950105        7.95681679973332     
   5.30101358520718       0.968337701211080        8.21913130082559     
  0.426640467555253        5.91702847935425        7.93220263541610     
   5.49477664048113        6.28142838380594        8.15849529171616     
 -0.171238599579154        1.13977415624259        10.6042263388836     
   6.79484657049856        1.18322336995337       0.230892919796949     
 -0.153521641281735        6.17623063128645        10.6620808909750     
   6.79191898974823        6.19203281036650       0.266962652812827     
  0.581748470483797       0.971001914613701        5.54034214815942     
   5.92550544867728        1.09204761076445        5.38766128347234     
  0.835256777692859        6.12553773443705        5.22142868514738     
   5.90770727606782        6.02468379890681        5.38355705022451     
  0.271747670300793        3.42514929603358        5.03792769690286     
   5.44050129383596        3.67605851053180        4.93665230565606     
  0.290632763813453        8.71207460628431        4.86591561212632     
   5.49953130555012        8.66708400742121        5.32655416300694     
 -0.497853060272228        3.78225694373715        10.2665527417179     
   4.36237858710612        3.69616894852301        10.4158321202308     
 -0.740637048355822        8.94056782853534        10.1507967653096     
   4.54037784567607        8.98068518596648        10.4331072209746     
