test
1.0
   10.5739141105117       0.338527961387861       0.222771109715589     
 -7.128550041869120E-012   10.7245766490792       0.371159075245735     
 -3.869003484988486E-012  5.055053248009033E-012   10.5509835337299     
Zr O
32 64
Cartesian
  9.195953791214301E-002   9.99564110090200       0.862112770200915     
   5.76381382041338        10.7292311522574       0.880281095824291     
  4.486502343158139E-003   4.90007640481129       0.463991763256415     
   5.27443391092374        5.13184090280347        10.7594451620240     
  0.122667828457710        10.3142675789153        6.04863455947519     
   5.36851987600328        10.6470970294929        5.67406486039662     
   10.2240397921761        5.04071402729641        6.17179462137656     
   5.12323610495050        5.24808802737273        5.46864199515236     
   8.18267343277465        2.67646699450651        10.5936973833318     
   2.30605351673280        2.19565248786946       0.522239918253391     
   8.32750553090996        8.09933166774207        1.06905123351058     
   3.36365277748607        8.11166754252421       0.435843644761261     
   8.26812452836873        2.73939570741498        5.90266402439935     
   2.60287943671677        2.65335858305402        5.60251738783152     
   7.96627108363969        7.96761926795448        5.60959951876943     
   2.70735316505236        7.80222011090633        6.03744940395412     
   8.19795687390767        10.3539012236405        3.61381258087614     
   2.80157816842106        10.7444972602151        3.36423953960392     
   7.59075751054007        5.04231682230858        2.91698125417250     
   2.80523089201105        4.76148293760365        2.90966850154488     
   8.06619075504825        10.5854165288496        8.67930584870565     
   2.64685676799104        10.3769548867702        8.87102390414493     
   8.04013760252811        5.57891858070113        8.57532203700826     
   2.71903016444160        5.07280632612862        8.51339472192065     
   10.3931093057092        2.61195579947941        2.92431849498298     
   5.42754131602869        2.40727688224633        2.85845955103070     
  0.409806563567570        6.73994125745002        3.56162784259115     
   5.43659894774272        8.00406029626908        3.06013657717134     
   10.5441097261239        2.63954547619763        8.42394994990604     
   5.38789647517076        2.67136498166121        8.37224146008955     
  5.179608336532608E-002   7.72069984400639        8.33559908773781     
   5.56683303938985        8.22491136591360        7.88934779505600     
   6.40941874379025        4.06003738558223        1.72440855671858     
   1.08322709088691        6.37082877032994        10.0192096371171     
   9.73408555030823        9.15477512849840        2.25207257346045     
   3.96933035329276        1.08701988416857        1.37231940154447     
   1.26773710151747        3.60903068713703        7.01757916819334     
   4.13166512449304        3.97833411451543        4.56629997491863     
   6.70335624793311        9.98707385783608        7.47507349666902     
   1.49531349135786        9.39520462257232        7.29267350917116     
   1.46075772817421        10.5948802821843        4.66480518605283     
   6.11361839422402       0.710472561203834        3.77065048111737     
   4.18825046449913        6.64476805970992        4.03455490933276     
   4.23901685248313        8.94899654143867        9.22846219515441     
   6.88490021022283        3.81672378726583        9.50012969909585     
   6.70963299921371        1.07201468653976        9.59810818873664     
   1.32342700493259        5.95646097036852        4.76563205323828     
   4.26512388408778        9.85411216114371        3.86251708899063     
   9.22291947531966        3.82247108279764        4.56900704327796     
   4.22050273710952        6.50723373781034        6.92263441746268     
   6.25262421682793        8.86767087035836        4.80699549412193     
  0.724028819678312        8.43532134091802        5.38396277901918     
   9.16470351580545        3.97142982215286        7.33834522121310     
   3.62351645075862        4.00944528571735        6.85095281278355     
   7.53450695635996        9.03698589057822        9.97911958480074     
   1.29748771425892       0.983094562861750        9.39690921894268     
  0.824009321821593        1.13595330705350        6.85128021088876     
   9.15901512920392        4.35930236826802        10.1645231283875     
   9.35292339571259        6.32890498737838        2.38979669417216     
   6.80139766402338        6.39737470362627        4.48457603320515     
   1.10876466041318       0.973091126320169        1.80606614693371     
   6.65718570775959        1.49741973283017        1.45448733151106     
   9.75633000531775        6.31624049627316        7.46719356030714     
   6.19006014966334        6.41108755428642        9.51679098790090     
   9.13973977003582       0.886684612177484        2.04399108466988     
   4.47181730777331        6.19412008434687        1.54707162835011     
   7.19383095855713        6.44889843077161        1.65886872232536     
   1.29071355360959        6.20841469604787        1.91410683650892     
   9.02592905671084        1.15040564427319        7.11331789105895     
   4.30227708619624       0.922609449463220        9.20087807072400     
   6.65323240353830        1.55601066214083        6.69719351243189     
   3.75505513220604        6.15085152575075        9.79826186791064     
   1.08718368584432        2.88784994051250        4.35146150404247     
   6.65461334513796        3.59299073307005        4.26150289147482     
   8.97291781315924        9.26305189647028        4.87364661813073     
   3.83704514948662        1.55112049995224        3.72792247146197     
   8.85523907748020        6.85041148326125        9.85111786944243     
   4.03424957152294        3.99895762488889        9.61057232133781     
   9.63560833447794        9.26563461212309        10.3573195745450     
   4.31274464271017        9.11795976924703        6.67561991160604     
   9.51702064309720        1.79242843423684        9.76296441152554     
   1.05484235942364        3.61638840678853        1.64521572929494     
   1.57555773848836        9.00307917733071        9.85768639332654     
   4.62743289161446        9.17305989230007        1.35359716891087     
   8.72642637227680        1.13768163888344        4.38845447001803     
   3.73551008785241        1.24916160474297        6.50874220511645     
   9.40177497701587        6.52495386131265        4.86594080674869     
   1.86396757342859        7.00470068440917        7.84070917210978     
   9.15484274199221        3.64391439779610        1.52811600627853     
   3.43264517112970        3.54465894803503        1.69550038743033     
   2.11219358777298        9.07553263145088        2.05354810825237     
   6.87650441414211        9.13214016283637        2.18686170123758     
   1.48456413466987        3.51967415141570        9.54181192058845     
   7.08109474290760        7.19554026825075        7.27871146600018     
   9.28050862814240        9.18735622099468        7.78536536155743     
   6.33786115528324        3.99777058324042        6.91591565563181     
