test
1.0
   10.3310482829127       0.140245402068695       1.040199952789633E-002
 -3.044392657855857E-002   10.5805331047642       0.180612202337017     
  -1.75361272268192      -1.371986570262285E-012   10.4035152978461     
Zr O
32 64
Cartesian
   10.1072393029550        1.71796566512321       0.863264605780389     
   4.98659939366888        1.85365350916409       0.911923933309478     
   10.0784936202933        7.03863171757143       0.951965449979298     
   4.93101735017420        6.92281106649228        1.05695050490210     
 -0.952748241260800        1.57095863767292        6.12460628013905     
   4.25060285476667        1.66679045866525        6.21631669078260     
 -0.925384289570196        7.05937926706394        6.09926585961282     
   4.04110959702634        7.03263390505089        6.12034367529878     
   1.59765813904273        6.41358384398173        3.91600232837148     
   6.83881067660098        6.66099665303798        4.15467933482478     
   1.81042923187942        1.11006140046961        4.00873367005209     
   6.80176027386145        1.29219317534776        3.86036963270055     
  0.782709040127602        6.38985868376058        9.23165204213091     
   5.75751611337447        6.51564758487824        9.09936107765574     
  0.892798928934581        1.15645314634974        9.06225399613039     
   5.90189183580808        1.32534297306317        9.15117129537487     
   2.07171094605397        4.16136212854158        1.23227313783596     
   7.16240632193173        4.43104616935983        1.28954444955448     
   2.07995068457798        9.52216641896161        1.24036879944947     
   7.21388615025639        9.52748066518942        1.34523230057463     
   1.07701100161224        4.24924109495356        6.45794910203503     
   6.57913626799626        4.30994624341974        6.41299289196156     
   1.32466961199416        9.50883194009468        6.63101441005357     
   6.37155450688623        9.71148980219667        6.58408879165931     
   9.55863975876119        4.03940323317735        3.44908672767299     
   4.51979672897877        3.88479908028880        3.63421028533542     
 -0.510335536921517        9.25816474059417        3.60589850058733     
   4.49021012679129        9.31335999760531        3.56439796205319     
   8.82084481055628        4.09954917092979        8.63722901858985     
   3.59460547267246        4.10622518441068        8.60979749810634     
   8.83044465630087        9.32149604703096        8.81583994405324     
   3.80664507351403        9.15377809409776        8.79972027580751     
   8.94706958548479        3.33090820495515        1.64624332683147     
   3.75126239122406        3.29104258759469        1.56428265460501     
   9.01220967952067        8.76205250662258        1.54789603322764     
   3.87208912386364        8.48987830856862        1.64921890401069     
   8.09136102194863        3.29264671625433        6.75700595841703     
   2.84892252415229        3.41594848903892        6.69894998590801     
   8.32985604133271        8.88495314419794        6.92169894378726     
   2.98530993370714        8.56752296038274        6.89353031866001     
   2.64060313133258        4.83468035696575        3.38798510461360     
   7.98589072801259        5.13274774867376        3.24221662957972     
   2.57201860379415        9.80361587425055        3.53709173658537     
   8.00371609670580        10.3178919426570        3.30489923669534     
   1.78046212285187        4.78377221674447        8.58848195738179     
   6.97060066412796        4.95886479992738        8.32224211278821     
   1.99345506169347        10.1561729102465        8.62309677168465     
   7.11229491562667        10.4532717317466        8.50875811166093     
   3.05294227990180        5.85793039907121       0.616140204879204     
   8.26981647163660        6.03940468856355       0.776856033798781     
   3.46797437059622       0.429760353954781       0.603965778091528     
   8.48173483465303       0.675209695329982       0.581243765110862     
   2.23878713564934        5.84639172427728        5.83934899351310     
   7.64630896776229        5.99902465109543        5.95264160094614     
   2.41904009895942       0.553303500691290        5.90923780256910     
   7.65827380249500       0.430334245773534        5.74070089521342     
   8.32155798030479        2.38825457743253        4.13185555902194     
   3.46031785496842        2.15236470498455        4.12362892179759     
   8.60551106871602        7.78684124691788        4.29745207493341     
   3.19247595343067        7.60637483126946        4.30742486023587     
   7.61095969062197        2.56890152319201        9.37144768294347     
   2.57849073865392        2.22937897628762        9.24962425258050     
   7.56135120435944        7.61946220726255        9.35197262297195     
   2.47130871146101        7.43338378845639        9.38183886462763     
  0.412929374170329        5.46504121673401        2.21852386586543     
   5.63880680819574        5.47097251554725        2.35505965779400     
  0.644604793304842       0.157492813239205        2.15428819335997     
   5.52163182552882       0.402526979752094        2.42803698686263     
 -0.499159178991027        5.36014299331258        7.42492409936912     
   4.65263007879433        5.46974811425094        7.53235968599446     
 -0.163119860582171       0.160213295069535        7.43934587610147     
   4.86400221509842       0.271647063093659        7.58549489494272     
  0.968011479556979        2.71523326304284        2.43116764124271     
   6.00287703743374        2.75880096700557        2.59163795506869     
  0.891661772121553        7.89134764817368        2.54654292880108     
   6.18665291092212        8.09962230301040        2.75860528917541     
  9.958942431841854E-002   2.72759116781666        7.65320455736034     
   5.18116536464981        2.71821283193315        7.90450989113509     
  0.187902662827698        7.90139721163350        7.80610714410847     
   5.19934623027162        8.05195301605244        7.87154684651761     
 -0.280477808961774        2.72659491098285        10.2143426978018     
   4.74907314754466        2.95608504970095        10.3657765093253     
 -0.470990078821379        8.12874456755205        10.3146242194664     
   4.69030997550498        8.20252285418858        10.4488976316024     
  0.427362704690252        2.78132604648149        5.00926088503141     
   5.70599774078407        3.01262920395028        5.22317263995163     
  0.619277985011822        8.20584973590135        5.12438961966466     
   5.49017708932220        8.05346747119967        5.17246623476488     
 -9.909824812687466E-002   5.36313686786150        5.01434267461827     
   5.23529863960893        5.47991051597925        4.97222531361653     
  0.123781229623591       0.114485493164314        4.74490080453699     
   5.19791333491212       0.265985447710617        5.00640579415539     
 -0.857245952058963        5.21091818775194        10.0959131646576     
   4.24935869488999        5.46785371699258        10.1741695388337     
 -0.682703849593553       0.158319902125506        10.0500292881139     
   4.47334132367854       0.136976264096306        10.0616460863858     
