test
1.0
   10.4114626023467      -1.697048927197497E-003  4.911664594696785E-002
 -3.577305090697623E-004   10.5567333751291       2.122278641095824E-003
  -1.76678752316116      -1.350855708861922E-012   10.4816763630419     
Zr O
32 64
Cartesian
  2.232120751509781E-002   1.70530176986884       0.980797196748523     
   5.27815237839697        1.68249159797488        1.27823841023775     
  0.116712195124768        6.90508050678484        1.03971447407536     
   5.18084642882013        6.97166019667208        1.25825646776782     
 -0.803424417483913        1.78024130642644        6.26541291828653     
   4.42757724359844        1.67271320106723        6.35096414367554     
 -0.782628077442099        6.98592660515588        6.45063430436964     
   4.45828697921989        6.96701641980861        6.24550169625184     
   2.02246591314332        6.52429936753025        4.15049426527674     
   7.25164405912898        6.66048688996212        4.12188644737329     
   1.82116201132366        1.13034934871083        4.16054967830754     
   7.13001913861199        1.31823942509097        4.11449078738368     
   1.07870092086745        6.57415748844170        9.47850210593008     
   6.11019972891122        6.54807003813405        9.36578039280753     
   1.06264863806405        1.22690188552538        9.47431540318188     
   6.11193997053599        1.30469644893023        9.48144039837966     
   2.29051803266538        4.31067364398941        1.56673556004238     
   7.52786321695057        4.37482531495383        1.55567598660691     
   2.35878132090605        9.64495163901647        1.60457324388871     
   7.57347858508516        9.56855155246030        1.50119643869188     
   1.46438986587726        4.46491111892877        6.84331379813274     
   6.71431358679777        4.45086050091847        6.74818118557876     
   1.47392284775262        9.63269332110430        6.60247253472853     
   6.64420552538495        9.74308280666799        6.70289195888377     
 -0.328738072245393        4.01623192464337        3.73229840488605     
   4.90645462496707        3.85374971809509        3.84132636154485     
 -0.528801571834280        9.04687533600380        3.46695261392599     
   4.79509965371125        9.22283567572700        3.75245579103187     
  -1.23664736757824        3.87144576881744        8.87792183867560     
   4.03152329919399        3.84685060794575        8.85692877965556     
  -1.23752102939136        9.15668067543807        8.86784917779376     
   3.96289048653940        9.22616564244476        8.96176610575998     
   9.26173767167749        3.21178327088916        1.55918737305963     
   4.16427956901864        3.29773226505469        1.93021588101254     
   9.17504205340821        8.39874462927066        1.67788871317716     
   4.05386829050876        8.59125492547553        1.89808833259607     
   8.33352514008227        3.22968618332318        7.14278327175558     
   3.32635345780547        3.33996210332424        7.02947505552619     
   8.35152465655898        8.54790037277201        7.06100219179431     
   3.35337393639964        8.56138208531400        6.91048218453059     
   3.14195726226102        4.83217521127789        3.63731680772090     
   8.31005584374577        4.92288596913259        3.63684241619265     
   3.08631313026995        10.1259392385732        3.49730432628488     
   8.09844271253536        10.1879944555783        3.49895436229314     
   2.22579391902035        5.10737979485468        8.59723915915778     
   7.36780508785208        5.00242160313524        8.84043086251378     
   2.22917316580260        10.2161451972341        8.79838040637466     
   7.54055296408941        10.4407599733234        8.69022986119902     
   3.50181000047629        5.83998209258032        1.15092234386216     
   8.68532456787337        6.03899201111044       0.822469777282615     
   3.49170598584749       0.701515152010008       0.975431310964467     
   8.93777408735149       0.379985983542073       0.934868293222993     
   2.41890746770096        6.09232137811103        5.99823294001170     
   7.96803698922948        5.83051246937158        6.17530780488142     
   2.50172321668055       0.722328193705285        6.18407730866668     
   7.87009077694062       0.734174777470285        6.03642556504965     
   8.94746405449624        2.03560831530481        4.19958758330973     
   3.81312573136034        1.92693088428998        4.35132988453347     
   8.96231577836766        7.44146597478348        4.16497034115335     
   3.84768643119354        7.55133851188953        4.40869705252738     
   7.81027540599333        2.40130830448167        9.66045831446980     
   2.93674137352605        2.25422601983919        9.79346681659521     
   8.13621811968963        7.53328326329684        9.49690157036343     
   2.86814724809487        7.53388850992062        9.78340280377144     
  0.812416535106789        5.54555249225860        2.58981730312082     
   5.88989402372682        5.62213324957882        2.53233706396191     
  0.813179378257938       0.283935051385175        2.56872237033294     
   5.85071080735498       0.175218782868408        2.60413539220982     
 -0.105791144781541        5.53096947147761        7.81241842972710     
   5.11331912049522        5.35170935539445        7.78089634071834     
 -3.440055087041823E-002  8.549008172853884E-002   7.63112401858830     
   5.16754394235981       0.188932695149978        7.84448039886314     
   1.10671472114878        2.99212543466176        2.66009013392434     
   6.42843889710173        2.90420222042669        2.79870396941181     
   1.25640020528982        8.14748129039020        2.48148444724758     
   6.45110216495319        8.00152668371314        2.68820745757529     
  0.489319300854421        2.82327824339902        7.94465781646586     
   5.70300456593895        2.87022447900312        8.07476325429291     
  0.429981311297340        7.95472390525418        7.90909325390753     
   5.42438781844485        8.10801601506292        7.82890775080196     
   1.54623845145539        2.79510204771774       6.614772792620920E-002
   6.90840644228566        2.78584702968409       0.315298481398574     
 -9.423478044330381E-002   8.15959798186655        10.4625493586416     
   5.18747145168802        8.15751408205380        10.4927089994319     
  0.806595445394479        2.83550385409090        5.35179316649240     
   5.92472499570150        2.75770335245837        5.47876136750840     
  0.976217559365979        8.04740948167192        5.29166310912109     
   6.03998548584383        8.22019914222608        5.21497759022928     
  0.268778258284094        5.39440678406545        5.04693348960555     
   5.68868780867657        5.45857505908916        5.20147399854973     
  0.368905100150952       0.106071408553619        5.16150276450398     
   5.35890491453857       0.138442944270574        5.14459098106945     
 -0.449611340369359        5.37805465041337        10.3663110057801     
   4.62002991151501        5.35371561541946        10.4253371812120     
 -0.390137853637903       8.088193012356092E-002   10.4178170706053     
   4.69382157358801       0.216176204158338        10.3691116513847     
