test
1.0
   10.3350000000000       0.000000000000000E+000  0.000000000000000E+000
  0.000000000000000E+000   10.3350000000000       0.000000000000000E+000
  0.000000000000000E+000  0.000000000000000E+000   10.5760000000000     
Zr O
32 64
Cartesian
   2.58375000000000       0.000000000000000E+000  0.000000000000000E+000
   7.75125000000000       0.000000000000000E+000  0.000000000000000E+000
   2.58375000000000        5.16750000000000       0.000000000000000E+000
   7.75125000000000        5.16750000000000       0.000000000000000E+000
   2.58375000000000       0.000000000000000E+000   5.28800000000000     
   7.75125000000000       0.000000000000000E+000   5.28800000000000     
   2.58375000000000        5.16750000000000        5.28800000000000     
   7.75125000000000        5.16750000000000        5.28800000000000     
  0.000000000000000E+000   2.58375000000000       0.000000000000000E+000
   5.16750000000000        2.58375000000000       0.000000000000000E+000
  0.000000000000000E+000   7.75125000000000       0.000000000000000E+000
   5.16750000000000        7.75125000000000       0.000000000000000E+000
  0.000000000000000E+000   2.58375000000000        5.28800000000000     
   5.16750000000000        2.58375000000000        5.28800000000000     
  0.000000000000000E+000   7.75125000000000        5.28800000000000     
   5.16750000000000        7.75125000000000        5.28800000000000     
  0.000000000000000E+000  0.000000000000000E+000   2.64400000000000     
   5.16750000000000       0.000000000000000E+000   2.64400000000000     
  0.000000000000000E+000   5.16750000000000        2.64400000000000     
   5.16750000000000        5.16750000000000        2.64400000000000     
  0.000000000000000E+000  0.000000000000000E+000   7.93200000000000     
   5.16750000000000       0.000000000000000E+000   7.93200000000000     
  0.000000000000000E+000   5.16750000000000        7.93200000000000     
   5.16750000000000        5.16750000000000        7.93200000000000     
   2.58375000000000        2.58375000000000        2.64400000000000     
   7.75125000000000        2.58375000000000        2.64400000000000     
   2.58375000000000        7.75125000000000        2.64400000000000     
   7.75125000000000        7.75125000000000        2.64400000000000     
   2.58375000000000        2.58375000000000        7.93200000000000     
   7.75125000000000        2.58375000000000        7.93200000000000     
   2.58375000000000        7.75125000000000        7.93200000000000     
   7.75125000000000        7.75125000000000        7.93200000000000     
   1.29187500000000        3.87562500000000        1.07108032679471     
   6.45937500000000        3.87562500000000        1.07108032679471     
   1.29187500000000        9.04312500000000        1.07108032679471     
   6.45937500000000        9.04312500000000        1.07108032679471     
   1.29187500000000        3.87562500000000        6.35908032679471     
   6.45937500000000        3.87562500000000        6.35908032679471     
   1.29187500000000        9.04312500000000        6.35908032679471     
   6.45937500000000        9.04312500000000        6.35908032679471     
   3.87562500000000        1.29187500000000        1.07108032679471     
   9.04312500000000        1.29187500000000        1.07108032679471     
   3.87562500000000        6.45937500000000        1.07108032679471     
   9.04312500000000        6.45937500000000        1.07108032679471     
   3.87562500000000        1.29187500000000        6.35908032679471     
   9.04312500000000        1.29187500000000        6.35908032679471     
   3.87562500000000        6.45937500000000        6.35908032679471     
   9.04312500000000        6.45937500000000        6.35908032679471     
   1.29187500000000        3.87562500000000        3.71508020517072     
   6.45937500000000        3.87562500000000        3.71508020517072     
   1.29187500000000        9.04312500000000        3.71508020517072     
   6.45937500000000        9.04312500000000        3.71508020517072     
   1.29187500000000        3.87562500000000        9.00308020517072     
   6.45937500000000        3.87562500000000        9.00308020517072     
   1.29187500000000        9.04312500000000        9.00308020517072     
   6.45937500000000        9.04312500000000        9.00308020517072     
   3.87562500000000        1.29187500000000        3.71508020517072     
   9.04312500000000        1.29187500000000        3.71508020517072     
   3.87562500000000        6.45937500000000        3.71508020517072     
   9.04312500000000        6.45937500000000        3.71508020517072     
   3.87562500000000        1.29187500000000        9.00308020517072     
   9.04312500000000        1.29187500000000        9.00308020517072     
   3.87562500000000        6.45937500000000        9.00308020517072     
   9.04312500000000        6.45937500000000        9.00308020517072     
   1.29187500000000        1.29187500000000        4.21691979482928     
   6.45937500000000        1.29187500000000        4.21691979482928     
   1.29187500000000        6.45937500000000        4.21691979482928     
   6.45937500000000        6.45937500000000        4.21691979482928     
   1.29187500000000        1.29187500000000        9.50491979482928     
   6.45937500000000        1.29187500000000        9.50491979482928     
   1.29187500000000        6.45937500000000        9.50491979482928     
   6.45937500000000        6.45937500000000        9.50491979482928     
   3.87562500000000        3.87562500000000        4.21691979482928     
   9.04312500000000        3.87562500000000        4.21691979482928     
   3.87562500000000        9.04312500000000        4.21691979482928     
   9.04312500000000        9.04312500000000        4.21691979482928     
   3.87562500000000        3.87562500000000        9.50491979482928     
   9.04312500000000        3.87562500000000        9.50491979482928     
   3.87562500000000        9.04312500000000        9.50491979482928     
   9.04312500000000        9.04312500000000        9.50491979482928     
   1.29187500000000        1.29187500000000        1.57291955686932     
   6.45937500000000        1.29187500000000        1.57291955686932     
   1.29187500000000        6.45937500000000        1.57291955686932     
   6.45937500000000        6.45937500000000        1.57291955686932     
   1.29187500000000        1.29187500000000        6.86091955686932     
   6.45937500000000        1.29187500000000        6.86091955686932     
   1.29187500000000        6.45937500000000        6.86091955686932     
   6.45937500000000        6.45937500000000        6.86091955686932     
   3.87562500000000        3.87562500000000        1.57291955686932     
   9.04312500000000        3.87562500000000        1.57291955686932     
   3.87562500000000        9.04312500000000        1.57291955686932     
   9.04312500000000        9.04312500000000        1.57291955686932     
   3.87562500000000        3.87562500000000        6.86091955686932     
   9.04312500000000        3.87562500000000        6.86091955686932     
   3.87562500000000        9.04312500000000        6.86091955686932     
   9.04312500000000        9.04312500000000        6.86091955686932     
