test
1.0
   10.3260201021075       0.153882689392192       0.114201312328555     
 -1.165973978686724E-002   10.4060307637526       6.917278808865114E-002
  -1.79327998480947      -7.140990938504502E-013   10.6388460312091     
Zr O
32 64
Cartesian
   8.86142197959298        1.40529533667931        1.82028805778949     
   3.91641404861686        1.01802216478252        1.74727364719590     
   8.88854755518622        6.43172172395135        1.66837753171871     
   3.68967488786942        6.36284147412092        1.74613100129619     
   8.25475971741781        1.20218495619381        7.18343742954361     
   2.91743732212996        1.14875613617950        7.22008839069597     
   8.23687364787834        6.56288408107768        6.98086088086221     
   2.84444128867078        6.30733381934628        7.00780130520304     
  0.511479245014884        5.86704502061092        4.63422837403913     
   5.50737986246407        6.00442313959801        4.84679733374378     
  0.431809286393522       0.628595906455773        4.87461276120616     
   5.66836798148832       0.976317725122273        5.05486175886508     
 -0.400163465153781        5.87727881850545        10.0031585395021     
   4.79359631962352        5.89104062093265        10.0421242853118     
 -0.396618636335703       0.444909993780330        10.0530812733882     
   4.84322549958866       0.669899966981056        10.3166102584866     
  0.918455081859158        3.66845727230073        1.91541298974697     
   6.04196674275385        3.85073527395473        2.14735926133634     
  0.824640930842164        8.93370202678158        1.98784145432714     
   5.88588744013953        8.78112982206084        2.31166831930435     
  0.131838116869830        3.64749163017118        7.49278439110900     
   5.34053085731193        3.81244180377070        7.53934482324041     
 -4.524168463556633E-002   8.90626362131511        7.51458394037334     
   5.16496962475231        8.90358327084578        7.53155045159341     
   8.54323084895274        3.51348882445049        4.50545025725281     
   3.21809185600123        3.20530296773508        4.46298651099566     
   8.36039610804504        8.46800164480964        4.25455652916653     
   3.24148743307023        8.73049051705579        4.44828207492347     
   7.71116476652720        3.39993760619778        9.67730215860658     
   2.55612379967757        3.17722277212835        9.76698953988852     
   7.62185688413227        8.61249280297663        9.80376860649332     
   2.47473873408991        8.38508616539135        9.73610451670781     
   7.67807377177967        2.73380076680567        2.65195747308823     
   2.59332713924568        2.65891122680529        2.44516896042364     
   7.61651898487119        7.58529492890647        2.52648563892988     
   2.55604432707938        7.78368693053835        2.42572292563383     
   7.04243363630924        2.70251837273226        7.72538509235780     
   1.61805136589007        2.34619501659135        7.83621762723728     
   7.12659189116431        8.20665748065799        7.79477168459526     
   1.46991781118772        7.56184918343669        7.79396480757516     
   1.63261135862011        4.31230277387180        3.88510681725170     
   6.96517095107346        4.69760542882674        4.15308481129157     
   1.59043732612866        9.66636732301796        3.81658973311367     
   6.74279196002723        9.63370135865984        4.10177020104216     
  0.979859886916151        4.36490077319510        9.29521948806600     
   5.77769381154146        4.22199324216271        9.56990724345558     
   1.02423868798522        9.73869403332035        9.25673732333982     
   5.83601782563663        9.55882415238017        9.75989970444313     
   2.06760268734913        5.12824480664491        1.19314630744367     
   7.36218198383623        5.21172158378180        1.37090715762490     
   2.23376511085263        10.1861510577553        1.31618944794274     
   7.28224836509484        10.3045595028857        1.50325205076717     
   1.18425677744464        5.04673031424850        6.56248413912845     
   6.32489620627928        5.55805588869293        6.88699825559515     
   1.44895599126401        9.98896254942176        6.38922032494827     
   6.32212663051384       0.193453513298817        6.97758603041095     
   7.48099475612242        2.03665876432719        5.23153594463157     
   2.18099903687055        1.68444348418475        5.29896241255039     
   7.19353377833628        7.24711956560644        5.18990573598350     
   2.23581837256038        6.99975557590779        4.99975968655264     
   6.42309610418025        1.76874346416053        10.4657987649992     
   1.30335261668293        1.81657181042813        10.4370840401563     
   6.34713488029391        6.94892477511257        10.1302158305505     
   1.10421360564668        7.19668839400067        10.3440941722157     
   9.76466518753910        5.10747253069244        3.03406902967915     
   4.53208951187584        4.95556336530188        3.06772400658820     
   9.64376278066099        10.2084459146771        2.91049175263665     
   4.42089385571791        10.0181221613809        3.10772346209846     
  -1.35405375749823        4.92679285321943        8.31188240557027     
   3.84700976009318        4.88321885751724        8.37422491205263     
   8.75230709204459        10.1640380348811        8.73096896522392     
   3.56568875171931        10.0532351949880        8.46516159071745     
 -0.243506255550335        2.25104302494034        3.22960774639489     
   4.85723048190689        2.12576556636899        3.52952735057764     
 -0.358626980687371        7.31934645536603        3.38383135253143     
   4.78148138889533        7.51195327041593        3.53323125632156     
 -0.885090575138869        2.16140116074823        8.59350810017198     
   4.18819482604870        2.19234606753533        8.47716630274906     
  -1.21657602539614        7.51299382412503        8.76421172811330     
   3.97303200103233        7.46234269748980        8.55020222796448     
  0.171313584468544        2.07111334931486       0.733801898112270     
   5.58473415293935        2.46424338965794       0.747068613163362     
  6.825506281257633E-002   7.47062518428989       0.597576062409749     
   5.23366753990867        7.47163304203402       0.847458989396827     
 -0.473663370680618        2.32301234112296        6.02627727374192     
   4.43146015493283        2.50131562174301        6.10990354283988     
 -0.603861568325808        7.52347407558955        6.09239148197900     
   4.40295931586866        7.55578139913895        6.14126078543994     
   9.10045167705998        5.13421202553154        5.63775662696892     
   4.02729870693512        4.90913893520027        5.83709766968551     
   9.18190249232765        10.2381764263466        6.13344980651131     
   4.27821175059031        10.0660594645519        5.76649495053833     
   10.0974531337802        4.88023417881442       0.256434850302225     
   4.79641693913075        4.80295634342605       0.465983622409022     
   10.1381943421375        10.1292858552939       0.579154479449437     
   4.95813268388338        9.95347260457130       0.524953337441906     
