test
1.0
   10.1375421483753       0.000000000000000E+000  0.000000000000000E+000
  0.000000000000000E+000   10.1375421483753       0.000000000000000E+000
  0.000000000000000E+000  0.000000000000000E+000   10.1375421483753     
Zr O
32 64
Cartesian
  0.000000000000000E+000  0.000000000000000E+000  0.000000000000000E+000
   5.06877107418767       0.000000000000000E+000  0.000000000000000E+000
  0.000000000000000E+000   5.06877107418767       0.000000000000000E+000
   5.06877107418767        5.06877107418767       0.000000000000000E+000
  0.000000000000000E+000  0.000000000000000E+000   5.06877107418767     
   5.06877107418767       0.000000000000000E+000   5.06877107418767     
  0.000000000000000E+000   5.06877107418767        5.06877107418767     
   5.06877107418767        5.06877107418767        5.06877107418767     
  0.000000000000000E+000   2.53438553709384        2.53438553709384     
   5.06877107418767        2.53438553709384        2.53438553709384     
  0.000000000000000E+000   7.60315661128151        2.53438553709384     
   5.06877107418767        7.60315661128151        2.53438553709384     
  0.000000000000000E+000   2.53438553709384        7.60315661128151     
   5.06877107418767        2.53438553709384        7.60315661128151     
  0.000000000000000E+000   7.60315661128151        7.60315661128151     
   5.06877107418767        7.60315661128151        7.60315661128151     
   2.53438553709384       0.000000000000000E+000   2.53438553709384     
   7.60315661128151       0.000000000000000E+000   2.53438553709384     
   2.53438553709384        5.06877107418767        2.53438553709384     
   7.60315661128151        5.06877107418767        2.53438553709384     
   2.53438553709384       0.000000000000000E+000   7.60315661128151     
   7.60315661128151       0.000000000000000E+000   7.60315661128151     
   2.53438553709384        5.06877107418767        7.60315661128151     
   7.60315661128151        5.06877107418767        7.60315661128151     
   2.53438553709384        2.53438553709384       0.000000000000000E+000
   7.60315661128151        2.53438553709384       0.000000000000000E+000
   2.53438553709384        7.60315661128151       0.000000000000000E+000
   7.60315661128151        7.60315661128151       0.000000000000000E+000
   2.53438553709384        2.53438553709384        5.06877107418767     
   7.60315661128151        2.53438553709384        5.06877107418767     
   2.53438553709384        7.60315661128151        5.06877107418767     
   7.60315661128151        7.60315661128151        5.06877107418767     
   1.26719276854692        3.80157830564075        3.80157830564075     
   6.33596384273459        3.80157830564075        3.80157830564075     
   1.26719276854692        8.87034937982843        3.80157830564075     
   6.33596384273459        8.87034937982843        3.80157830564075     
   1.26719276854692        3.80157830564075        8.87034937982843     
   6.33596384273459        3.80157830564075        8.87034937982843     
   1.26719276854692        8.87034937982843        8.87034937982843     
   6.33596384273459        8.87034937982843        8.87034937982843     
   1.26719276854692        1.26719276854692        3.80157830564075     
   6.33596384273459        1.26719276854692        3.80157830564075     
   1.26719276854692        6.33596384273459        3.80157830564075     
   6.33596384273459        6.33596384273459        3.80157830564075     
   1.26719276854692        1.26719276854692        8.87034937982843     
   6.33596384273459        1.26719276854692        8.87034937982843     
   1.26719276854692        6.33596384273459        8.87034937982843     
   6.33596384273459        6.33596384273459        8.87034937982843     
   1.26719276854692        1.26719276854692        1.26719276854692     
   6.33596384273459        1.26719276854692        1.26719276854692     
   1.26719276854692        6.33596384273459        1.26719276854692     
   6.33596384273459        6.33596384273459        1.26719276854692     
   1.26719276854692        1.26719276854692        6.33596384273459     
   6.33596384273459        1.26719276854692        6.33596384273459     
   1.26719276854692        6.33596384273459        6.33596384273459     
   6.33596384273459        6.33596384273459        6.33596384273459     
   1.26719276854692        3.80157830564075        1.26719276854692     
   6.33596384273459        3.80157830564075        1.26719276854692     
   1.26719276854692        8.87034937982843        1.26719276854692     
   6.33596384273459        8.87034937982843        1.26719276854692     
   1.26719276854692        3.80157830564075        6.33596384273459     
   6.33596384273459        3.80157830564075        6.33596384273459     
   1.26719276854692        8.87034937982843        6.33596384273459     
   6.33596384273459        8.87034937982843        6.33596384273459     
   3.80157830564075        3.80157830564075        1.26719276854692     
   8.87034937982843        3.80157830564075        1.26719276854692     
   3.80157830564075        8.87034937982843        1.26719276854692     
   8.87034937982843        8.87034937982843        1.26719276854692     
   3.80157830564075        3.80157830564075        6.33596384273459     
   8.87034937982843        3.80157830564075        6.33596384273459     
   3.80157830564075        8.87034937982843        6.33596384273459     
   8.87034937982843        8.87034937982843        6.33596384273459     
   3.80157830564075        1.26719276854692        1.26719276854692     
   8.87034937982843        1.26719276854692        1.26719276854692     
   3.80157830564075        6.33596384273459        1.26719276854692     
   8.87034937982843        6.33596384273459        1.26719276854692     
   3.80157830564075        1.26719276854692        6.33596384273459     
   8.87034937982843        1.26719276854692        6.33596384273459     
   3.80157830564075        6.33596384273459        6.33596384273459     
   8.87034937982843        6.33596384273459        6.33596384273459     
   3.80157830564075        1.26719276854692        3.80157830564075     
   8.87034937982843        1.26719276854692        3.80157830564075     
   3.80157830564075        6.33596384273459        3.80157830564075     
   8.87034937982843        6.33596384273459        3.80157830564075     
   3.80157830564075        1.26719276854692        8.87034937982843     
   8.87034937982843        1.26719276854692        8.87034937982843     
   3.80157830564075        6.33596384273459        8.87034937982843     
   8.87034937982843        6.33596384273459        8.87034937982843     
   3.80157830564075        3.80157830564075        3.80157830564075     
   8.87034937982843        3.80157830564075        3.80157830564075     
   3.80157830564075        8.87034937982843        3.80157830564075     
   8.87034937982843        8.87034937982843        3.80157830564075     
   3.80157830564075        3.80157830564075        8.87034937982843     
   8.87034937982843        3.80157830564075        8.87034937982843     
   3.80157830564075        8.87034937982843        8.87034937982843     
   8.87034937982843        8.87034937982843        8.87034937982843     
