test
1.0
   10.8506996074558      -0.292820776848018       0.237386060687020     
 -6.251977642059288E-012   10.4846154931581      -0.314610978102725     
 -4.571177564058080E-012  3.773412467004710E-012   10.6789069409177     
Zr O
32 64
Cartesian
  0.453967996188087       0.381186072500506       0.985542561656116     
   6.20867423685199        10.1164789971695       0.175912518629669     
  0.752687844021530        4.88906237706989       0.815375308766243     
   5.83304346319123        5.17682590057108       0.640996318519361     
  0.496078564437349        10.4159431239470        5.98292671720223     
   6.04270809530681       2.783433091466500E-002   5.90754049291566     
  0.368429944314554        5.32495424407248        5.97281557685892     
   5.65156432525004        4.97485199448364        6.12766067512483     
   8.90732751133200        2.42247325353158       0.943399820065255     
   3.13069580793180        2.64410498018128       0.767040252706486     
   8.40942518464917        7.61884972785032        1.07927420071073     
   2.99258990566590        8.19395521606144       0.126341603053509     
   8.20243816327991        2.59482878374246        6.41556666735544     
   2.98201624347847        3.26518132513113        6.03363214736106     
   8.37261296052125        7.41100384453460        5.94250607378430     
   3.10835292883867        7.97326758291211        6.01722027913668     
   8.65247571109942        10.1030028231244        3.49902912331645     
   3.48720542959094       0.342196031869321        3.45928173154424     
   8.49681885704831        4.89758112261858        3.62765911303815     
   3.18725855312069        5.45531944498929        3.05603087918700     
   8.57000972654589        10.1012150023898        8.49718122314849     
   2.94131218592700       0.163020828894081        8.63186276862950     
   8.33914976520066        5.27912186134270        9.21406450265424     
   2.81543901573827        5.39426563425139        8.66976383870093     
  0.173378061391016        2.66643291417781        3.44640604054224     
   6.08502892429873        2.28203036164925        3.52204867616845     
  0.263113407785181        7.80504111539956        3.48545640642303     
   5.51353646907148        8.03442396269110        3.05408638283588     
  8.464648984352474E-002   2.90207576462984        8.85181568411196     
   5.87671278663786        2.08342367181613        8.92106543348945     
  0.298061945189988        7.90115653513787        8.85190137859095     
   5.62906897260385        7.54949118536615        8.65667277971047     
   6.60987532855380        3.24475225181949        5.19025134730229     
   1.62688541538965        6.37240378907359        10.1873667257310     
   9.99818832531905        8.83561154409780        4.97522742806794     
   4.13885801173044        1.77953382364334        2.59372515765075     
   1.73621860600262        3.95713851650488        4.41729440700439     
   4.29367122752692        4.55434646391880        4.88178410120348     
   7.74673662385289        9.49472679025679        6.37560799954243     
   2.28142000134947        9.25827124692727        7.14586604541823     
   10.7668169575002        1.15128290199258        5.22648942074323     
   7.87470714070968        1.20821335023814        4.93100861916204     
   4.32888624648617        7.25841819481173        4.25559603352263     
   3.64783106619121        8.59873665999360        8.91794907311532     
   7.99199914637304        3.54772513610719        2.34299754757181     
   7.45379013836161       0.992272212503930        10.0779354347718     
   1.79720958071775        6.63771452149652        4.95261136345811     
   5.75173298196608      -9.044696003386886E-002   4.03511373988630     
   9.85123119714574       0.959708042342467        2.73306908165230     
   4.11549357098397        6.58569414753740        7.22386552094693     
   7.32306301324396        8.17381701384880        4.21938560373414     
   2.42706128630552        9.65431084350054        4.61262121286909     
   10.0604171611076        4.39601959674816        7.96900340829839     
   4.75840331929839        3.79062109669532        7.50906651063058     
   6.45425484735368        9.25230089033675        9.17435595270559     
   2.33430162606228        1.08910603022377        10.4909313717326     
   1.46755123765544        1.70947040782848        6.94907762010549     
   10.4212825118719       0.901653077480063        10.1604297222723     
   9.46487176067007        6.76985453080964        2.89386992122438     
   7.49332607178195        5.79214727465963        5.37931329579924     
   2.41423230815993        10.0197277545473        1.07326742663247     
   6.80744674686952        1.29623061190224        1.92788136469939     
   9.91409106815682        6.75856980986386        7.69516976565691     
   7.07351796354355        6.74457874582462        9.92959599768789     
  0.328187841460476        2.68504145289003        1.18740680693196     
   4.01099923270685        7.04572732643578        1.53542909309725     
   6.83436107830783        6.46927412428823        1.90423152842365     
   2.38349313004907        4.14869654536158        1.90280525636001     
   9.36276108341098        1.25197768745787        7.58076490612207     
   4.69353812380342       0.736623423874940        10.1775785190468     
   6.61664803592314        1.34650408175220        7.11653707289610     
   4.35866750699163        6.19955693376365        10.0758249970248     
   1.69553169661468        1.05921629101415        2.53682007532257     
   7.56791858130745        4.21971492132693        7.58576570404592     
   9.83333814814001        6.19785533441214        5.35599449600385     
   4.56755157220647        1.68806132957682        4.99631587935093     
   9.99468003949992        3.74178849876073        10.3543601187623     
   4.80962220582831        3.49383698050833       0.140441594904435     
   10.0065014509594        6.59958526902728       2.364935062455051E-002
   4.88467404727828        9.13504370976141        5.98658035281409     
   10.5621734003960        8.87830166739623        2.31003059445172     
   1.63174055664302        3.79764843162615        9.96381025107132     
   1.02679784875419        9.10789169718593        10.3892379471393     
   4.51550067309238        9.49825131191139        1.34264400192883     
   10.6193275157227        9.48654037349179        7.89289565773333     
   3.59686374995122        1.82363438542007        8.15192707302557     
   9.44729328818562        3.65120840147639        5.06191723521474     
   1.95158000130957        6.84925886354604        7.67002086794200     
   10.4991151972468        4.31378669527331        2.62271449814387     
   5.23023442000398        4.31707955484141        2.08172173014756     
   1.07898684123531        6.57850887947194        2.08668125441038     
   7.47416350736320        9.29264581013620        1.86427581491057     
   2.06445560683082        4.20582865559978        7.32524494338710     
   7.08202586834857        6.41717690451447        7.49518110928688     
   9.23072706957932        8.93333225016698        9.99146734962270     
   7.34971735958417        3.79377548422328        10.4528167804066     
