test
1.0
   10.3627882158135       6.108215359922248E-002  7.023882856216423E-002
  1.817176588797382E-002   10.5275640537645      -0.107806154654789     
  -1.80024685256799       3.275685127564655E-013   10.6801777994880     
Zr O
32 64
Cartesian
  0.683218214725029        9.62956254044734        1.95605290008103     
   5.87766072314573        9.85601326902951        2.19610260313249     
  0.730930318843473        4.40790175353240        2.03980832484652     
   5.68779726161511        4.57872376337242        2.07351604907953     
 -6.025757017150686E-002   9.76878027484027        7.23120029219975     
   5.11954198709557        9.82160393478755        7.32773968416842     
 -0.270055807789422        4.56534499667514        7.44430078694721     
   5.09574218181842        4.45511046628037        7.53868583432442     
   2.33878266662693        4.01767310575847        5.06981101714192     
   7.61159056903888        3.90489902001308        5.29856852187474     
   2.52286492905776        9.22037704081289        5.06709343885388     
   7.72031291343898        9.19485983213298        5.20311204502777     
   1.48245766666867        4.06025943753489        10.4482499778067     
   8.56829826000865        3.88514226985103       4.345547302471180E-002
   1.67731263511146        9.51621180152701        10.4598179285299     
   6.92701658367965        9.21084091181470        10.5739044698567     
   3.14959446275632        1.65934066631697        2.58656173862649     
   7.98280817107103        1.86866684741933        2.63785187233918     
   3.03696117348874        7.18710507498498        2.32725126672611     
   8.22019409347583        7.06246272520701        2.56641007435044     
   2.01983479452292        1.80661928192616        7.83377504575128     
   7.40999251972769        1.99843899253674        7.92366813938803     
   2.04890981047686        7.14505885667499        7.79891497520753     
   7.18403439239317        7.15859072165254        7.93875014993146     
  0.221902196142140        1.15459411952337        4.59961263676910     
   5.45065179309954        1.62194222492594        4.89465643334915     
  0.279415325568295        6.66530999732834        4.74680240655708     
   5.21135197553442        6.64482547851648        4.87715135571273     
 -0.563960160887811        1.40864527173378        10.0596806677755     
   4.56097714444082        1.35937654159958        10.1307546179770     
 -0.659904525947658        6.57077310636819        10.0156176800206     
   4.49037736468068        6.74094082916122        10.1056555910028     
   9.74652422098510       0.500959954844660        2.87080220828544     
   4.76582685004709       0.665742665220493        3.19926355456425     
   9.62136300848113        5.74028289164228        2.68123658196405     
   4.60856930416079        5.85478718488886        2.95005540151491     
  -1.24048010991015       0.618269112739885        8.29102117548017     
   3.69724493832436       0.697731495083534        8.22183225198823     
   8.93160194867436        6.37895312140820        8.20395055434758     
   3.76861677162246        6.07595359007210        8.29523315329251     
   3.54998066584607        2.66088808945619        4.40099197600728     
   8.67792365126331        2.42600779618268        4.48908205341125     
   3.57045598730411        7.76733437028448        4.25624210652702     
   8.74844218689629        7.77733159828221        4.41151303697498     
   2.99102616868647        2.79086411263460        9.52469656641190     
   8.18486091235351        2.46587632989173        10.1195080414494     
   2.97184272998044        8.06062488518183        9.77746431276734     
   8.08143473283691        7.59444196105698        9.78346093236191     
   4.02653466445309        3.44560913450028        1.64044457928781     
   9.34141986407289        3.19209816803134        1.90833160091139     
   4.31194710511217        8.65048996387032        1.57800111516023     
   9.44449134894601        8.50875955050316        1.77630348842433     
   3.52647463551699        3.00855269671487        6.91035582924402     
   8.44246744698250        3.40134910617074        7.18024063384554     
   3.53729808115191        8.60802253925612        7.01247902980487     
   8.58087391787578        8.86165766745094        7.22295249130866     
 -0.846880485228805        10.1708161515176        5.23812238932245     
   4.31597409646821        10.4111952419904        5.38629503622095     
 -0.830219273058874        4.84864747094776        5.39952118707203     
   4.11659074620641        5.11233795350418        5.51813428805843     
  1.352331751125692E-002   10.1542160590826       3.407980033362028E-002
   4.91409877629150       0.328557565805853       0.344692000322480     
  1.415617463031561E-002   5.20348756798626       0.138578806100056     
   4.79447488454960        5.39116838594814       0.493071107112450     
   1.30800313018819        2.76839210987394        3.53844229100320     
   6.24431929871830        2.93589404406687        3.67092639773890     
   1.28479137422849        8.14932070938003        3.28703077117753     
   6.52188296262956        8.13721961896003        3.38247472242865     
  0.480161717414947        2.75679695094436        8.88870531624257     
   6.06184047905112        3.19648177269190        8.99470599699223     
  0.585811729721206        8.42327400821047        8.70767317215290     
   5.73837744625120        8.44837602708451        8.89845599641873     
   2.09365513215623       0.158421433460780        3.58841507635612     
   7.00090209336752       0.229040405889507        4.04522975053000     
   1.65719971656135        5.34544229344657        3.76440030770116     
   6.80715031547133        5.57333575359955        3.94547243695737     
  0.953813330629723       0.287151267000974        9.06785336435922     
   6.19488878715165       0.524557351073411        9.05668277614159     
   1.00524663631864        5.44790576332743        8.89389574023000     
   6.20206178942903        5.85593598853267        9.08802480739529     
   2.19772922832223       0.332446292643317        1.05316573882011     
   7.37288421393504       0.359619762258990        1.12594167470917     
   2.18204370566177        5.62962016677046        1.23286779581958     
   7.24062963869264        5.40295245805945        1.04983186875926     
   1.30968324718042       0.377471551683580        6.35137262143520     
   6.69306266452576       0.595297571019255        6.38865822820535     
   1.20067782861909        5.84120822175866        6.39259392894750     
   6.38329038775260        5.84283526335501        6.55669832253741     
  0.992351149851893        3.19560889126727        6.38386477739330     
   6.07296368501036        3.18212011443166        6.39833723997725     
   1.01665945076449        8.17696180549975        6.12766330648504     
   6.25753205967494        8.34600242168301        6.38792340525876     
   1.84500366723705        2.92818112800931       0.910469273038044     
   6.82529796437908        2.91238871061882       0.874244302522510     
   1.95651078138251        8.22400319038765       0.737347892314763     
   7.22311385998399        8.17696786748657       0.914642202447658     
