test
1.0
   10.4373495726774      -9.802426787239896E-003 -0.125716258590387     
 -1.700892350789919E-002   10.4355593724487       0.100907454436625     
  -1.83062602067297       1.712254921974070E-012   10.8604058142924     
Zr O
32 64
Cartesian
  0.127267555501995       0.518834421291037       0.905873439033706     
   5.09925608268553       0.270509507040651       0.695881781190824     
 -0.135911796846431        5.65517627327269        1.02492478053701     
   5.10795736610922        5.83892132243132       0.926535341588608     
 -0.724259897967120       0.366869428103289        6.45683809058604     
   4.44219189315849       0.633463059999981        6.43217596747327     
 -0.779052641912797        5.86174110971794        6.50805691754476     
   4.25697775913784        5.81073482028682        6.35589617872028     
   1.88936407136338        5.18652168398052        4.01256290595691     
   7.28616102767472        5.34320049947700        3.74768018353511     
   1.92606104323130       0.208593509423780        4.23139387097293     
   7.19601356887672       2.237735794934850E-003   3.85917993909971     
  0.983069002507306        5.29664333790813        9.41917944317904     
   6.02242276347726        5.43889096877957        9.50007909363992     
  0.836698533955714       0.277390342990853        9.43059342951193     
   6.08824462900435       0.111400438770062        9.32936033576819     
   2.58852984748474        2.78992857939656        1.31142370287245     
   7.50426227323580        2.99507862820842        1.18699671612089     
   2.17706047372274        8.30044653477827        1.52985231981104     
   7.48560778076110        8.20741300192914        1.38497448828224     
   1.46662651955657        3.21915205510801        6.55176769602418     
   6.60085603944497        3.38493059023085        6.15346100958839     
   1.68069497230286        8.43085203002403        7.03615253987139     
   6.64767553913114        8.29758396009428        6.76809774643758     
 -0.432047554750968        2.82813958975471        3.35293700079425     
   4.95133975851939        2.48054279533563        3.46418980852797     
 -0.221671353059983        7.94320555653596        3.99172430004901     
   4.76491740160339        7.92520342480058        3.56760160346493     
   8.89386736539318        2.82596214604286        8.58612517834369     
   3.89837267809461        2.98917409280321        8.98819723743611     
  -1.44148143440499        7.86862347536432        9.28578140387696     
   3.86397800403210        7.85750301307560        9.13085479847582     
   9.39500473041473        1.97153833741993        1.46506426325702     
   4.46299703458737        2.04845695166356        1.38229599577404     
   8.98384258725200        6.82583093373163        1.70613944143098     
   3.92321754995595        7.24672151481300        1.68685329496825     
   8.26884941469627        1.84252426889788        6.80396763860531     
   3.27962530571599        2.22789669444368        6.88368035239859     
   8.13885318988983        7.03427659963883        7.28005857041269     
   2.73047168065560        6.80796416508883        7.26778491150144     
   3.15860820575520        3.42069022490066        3.09683259856599     
   8.49716560723552        4.13206221998774        2.99763952278895     
   3.10890833279497        8.91250133530632        3.34267435553889     
   8.34194053504265        8.83436917457941        3.18216690296241     
   2.32505801356882        3.95670887200561        8.47496690893076     
   7.44662227370008        4.14664504362330        8.29454009001444     
   1.79555228739716        8.96837170604232        8.98849114573308     
   7.36613691379554        9.11428904006675        8.90880133975412     
   3.76930349377405        4.51317677814367       0.554442348160497     
   9.02320778671274        4.31123049834227       0.152068467823926     
   3.28673255565553        10.0323972429281        1.08386406055538     
   8.59337697729650        10.0767322738762       0.657301776083521     
   2.84458774087985        4.41389460727395        5.83495308849533     
   7.82692993068515        4.55847037102053        5.56841508965369     
   2.63174657805760        9.92930080612746        6.12778181566594     
   7.90034788788505        9.80913634719917        5.92285263942332     
   9.10995174214531        1.18656686242101        4.27879513248939     
   3.85636714998998       0.918294489760060        4.38706958904899     
   8.89200538483147        6.56792541165554        4.35452106541956     
   3.55372388259561        6.48725211525174        4.30485204280529     
   8.03551422467579        1.52234723802495        9.93886222791502     
   2.77285101900555       0.947394944834776        9.67328031355233     
   7.73796128246271        6.63496504007695        9.91921294260658     
   2.43251068656704        6.53947746541822        9.81684748920927     
  0.909446748443499        4.06230794691761        2.53280036324022     
   6.25266061433313        4.38521622465408        2.34687910661177     
  0.479556429977655        9.60800965575515        2.89079379173936     
   5.92652929694637        9.30987687818459        2.50520593509046     
 -0.223951994599548        4.22567298175547        7.76453633173472     
   4.76795934342736        4.55218096416667        7.68780982953458     
 -0.328497213971335        9.55988438985577        8.19570897395727     
   4.65294933638549        9.52935481386173        7.97818656683293     
   1.19630337580683        1.63092764767921        2.60820976130863     
   6.75750357283212        1.68104616866921        2.71214462461894     
  0.991994220801822        6.86695984904094        2.84043609036757     
   6.24182744506607        6.71912875181099        2.43786685079291     
  0.524335471782789        1.70801098214915        8.08931754620259     
   5.62471733039318        1.76776270020195        7.93671465992078     
  0.297439956279790        6.73030607114228        8.23089434536534     
   5.52868974394430        7.19723826380442        8.18516954842846     
 -6.556343122528988E-002   1.71839677560314        10.7343830989051     
   5.16923749196117        1.73461872009439        10.6519067940805     
 -0.411763949929151        6.80586729791874        10.8775085619523     
   4.84486180549827        6.80924725727942        10.7333897878704     
   1.04233130309314        1.47940750226595        5.50201148455340     
   6.10889776108678        1.73083861884795        5.13555127191350     
  0.692280240333284        7.03657700878364        5.70716289932256     
   5.86596795870723        7.07495389198533        5.44170928127656     
  0.152999664219596        4.21591940261931        4.87764452224228     
   5.58507271488220        4.07693379651232        4.54332869218365     
  0.401449184427468        9.48007437551336        5.29766471584995     
   5.51278618253169        9.33140720429513        5.16929520772747     
 -0.551815678739764        4.38159697226650        10.3492690637832     
   4.54263814178638        4.28930368807004        10.5118702761028     
   1.08596494152928        9.36130501398822       9.672452805740997E-002
   4.42830724002845        9.33229643797552        10.5750032792466     
