test
1.0
   10.4000458477103      -0.117700884950893      -0.276294215186397     
 -4.472542059159586E-012   10.4496991355117      -5.979398629264793E-002
 -2.384012395194214E-012  3.849438471801482E-012   10.8299924543774     
Zr O
32 64
Cartesian
   2.06867252000013        8.23796840511585        8.08878248626247     
   7.31012492235225        8.23070821459535        8.43851641860298     
   1.80048896850408        3.05717067481334        8.35225396815296     
   6.85459801715904        2.78681967783978        8.49298498119405     
   1.66548532701965        8.34757983940164        2.95909033096392     
   7.26074054820944        7.93840280413317        2.60359956167900     
   2.04021509714701        2.86662123250173        3.57671828333018     
   7.28163181493587        2.85069734174381        3.00143752686565     
   10.0469404029332       0.266161944425551        8.39333416870077     
   4.49936024064244       0.529240959865727        8.33748861258482     
   9.86470461970355        5.67210498139740        7.86272833502658     
   4.72320025947417        5.67597023279669        8.31794437658283     
   9.86007106722617       0.665553980312925        2.83918507881409     
   4.64830698780792       0.304555286080563        2.55596288160926     
   9.88618932699669        5.64407334513781        2.73117154143009     
   4.49218480924054        5.36073204348895        2.80669827612546     
   9.61431240792328        7.59859021056998       0.108549057520408     
   4.56293884954868        8.13232462847285       0.128892850416825     
   9.83511812869638        2.70134116697089      -2.940059533549094E-002
   4.67625378738923        2.69159075717869       8.561869213138061E-002
   9.88130473171911        7.91405288351676        5.43421242985289     
   4.74066934501224        7.86047759598992        5.33649971119977     
   9.43126793552942        2.67680568737755        6.12093052354986     
   4.56924417577864        2.69936158877508        5.58596286940864     
   2.02884892515492       0.269642096034342       0.377694951424411     
   7.45020454311152       6.397907698518121E-002  0.423081053028733     
   1.77319178303811        5.35147841722446       3.839371955829418E-002
   7.35907484255472        5.23258105480021       0.106394339663068     
   2.36208104800550       0.396178626901898        5.77485890336702     
   6.65520544901416       0.377320526815708        5.42357759926719     
   1.89516425494725        5.69069979054644        5.46669649073771     
   7.22364312086058        5.52450728087816        5.26835870728136     
  0.830688627083115        1.78399839817494        10.2117846753992     
   5.83320354925288        1.74477506034888        9.79865846285915     
   1.01553860600884        6.88566059957170        9.75237312019573     
   6.05352892638173        6.91861968462226        9.71535356853096     
  0.750475845901208        1.63229301933259        4.78588674607854     
   5.69198539237254        9.44370545991960        1.23045688619735     
  0.495273139016564        7.03533571860424        4.35220945507743     
   5.74999855022918        6.46378418306444        4.21626736918136     
   3.56192367916286        9.17790764062041        9.53588196060286     
   8.08977167667147        8.77865887019091        10.3412800220815     
   3.10375136832398        3.83813473293290        9.99769916892289     
   8.07670971669475        3.19519859163525        10.1858487984271     
   2.89142307338412        9.33101845576205        4.56497258509387     
   8.46201872835310        9.69477600053155        5.76841970579349     
   3.26865302185430        4.03944891349509        5.02856854460753     
   8.80375127659634        4.14608282436673        4.60935540916010     
   1.21927019713970        1.24708774043132        2.14775659426015     
   5.77556937071530        1.59871790680110        4.37900602708584     
   1.13044915270322        6.60419740802641        1.74252837060755     
   6.09755470707619        6.59293908227066        1.63495399951388     
  0.567699774059500        1.77575027250455        7.48189304867869     
   6.02439076606349        1.69114771817460        7.00256308267319     
  0.906898829459708        6.81984603025937        6.91358231131735     
   5.93786141912780        6.67515983603076        6.82137307383879     
   3.22619772133278        9.04841442980374        1.65202524641861     
   8.22593033402734        9.57365642764539        2.17321524229481     
   3.06380371727355        3.86551870351254        1.89122404943018     
   7.90646388330348        4.63436820588358        2.06076021618258     
   2.81673699191699        10.1222890237090        7.52801053543485     
   9.21780941163249        8.40437015020009        8.59733404689652     
   2.98142468884383        4.67192418058421        7.27887287788151     
   8.23777268776717        4.43087286533681        7.52451770356866     
  0.322878439748064        9.31356732608737        1.07724265278725     
   6.22078414777408        1.36121296268161        1.77013688570369     
  0.172219849750589        4.53832088612666        1.08279697707187     
   5.50770128923855        3.81689571608468        1.86567063696797     
  0.474050670225749        9.13245509688891        7.00727729007272     
   5.24220844949546        9.74531879813186        6.49421234218780     
  0.429974217114018        4.32674440078185        6.59115174929307     
   5.52363799263432        3.89358537964268        7.17936358526789     
   3.50685993354287        1.32938164222206        1.33992666750246     
   8.52044639531083        1.62278708468903        1.61815047370980     
   3.31149985805862        6.48273016103281        1.13090859343455     
   8.49214688378816        6.78399106213435        1.41785615755348     
   3.29899607840944        1.78501865970687        7.07511891593949     
   8.50450626594014        1.90382825281310        7.51620391792035     
   3.28924440575423        7.38220059108853        6.36481027771317     
   8.74955441497280        6.44610744606268        6.39283717169660     
   1.22607313179071        9.82406250581445        9.42350735409143     
   6.61092755635887        9.84606702952129        8.85471481156265     
  0.555152828636164        4.17207746704426        9.53672720796982     
   5.96063259472081        4.58253836948190        9.70319873889284     
  8.376807438030652E-002   9.45788737088847        3.85860031231452     
   5.75820588439341        9.31143259794274        3.86330199076991     
  0.875300867683476        4.63250356655782        3.69494362976886     
   6.43171386934834        3.67764018332870        4.59929938655210     
   3.24876109553811        1.43647838390177        9.56639719524092     
   8.88333287598381       0.629983124602744        10.0351073484896     
   3.49474130063680        6.95115559211707        9.10082798205741     
   8.68660703444017        6.01436839649395        9.64793004779600     
   3.42564603954020        1.54727324888954        4.29105159061997     
   8.43755784328139        1.54210724706522        4.19943554109404     
   3.03344333770578        6.83261589922773        3.91233910501810     
   8.48016234791204        6.76551879298111        4.15673473343420     
