test
1.0
   10.6610184897176       0.304707770744609       4.859482143224447E-002
 -2.874681533880734E-013   10.3755846913806       0.517522841989730     
  5.420999479503033E-013 -6.654565388606989E-013   10.3654934757991     
Zr O
32 64
Cartesian
   3.19388038520379       0.171712911860422        1.85585022210693     
   8.39737191516133       0.334681457878065        1.95459068402824     
   2.84383782705454        5.29332797499749        1.77795683212425     
   8.28999347114826        5.06734413056867        1.98625007178141     
   2.98149821305949        10.3999547722320        7.35714011141633     
   8.47034528304191        10.4744617302472        7.66135282485701     
   2.82430841265151        5.22584953607317        6.87944904386853     
   8.65603911040593        5.22599784896727        7.10615111049789     
  0.291590552035989        2.64222965442522        1.82782168059518     
   5.54997000277693        2.84262341450329        1.90256383993663     
   10.5682951776781        8.24399581366514        2.04150206421236     
   5.43990738304197        7.64919284488440        2.04811108678552     
  0.458045184002003        2.82412219761943        6.96270113669643     
   5.60535932020794        2.60125258224572        7.07091270658343     
  0.105823416297927        7.80285411201796        7.21872563851635     
   5.45160047558077        7.61389222149995        7.43313009135133     
  0.243548987368576       0.102598926191970        4.34444623823586     
   5.50152145705493        10.3469016813011        4.73169565320022     
  0.276861610644771        5.62327001327741        4.18811352530624     
   5.79057349673168        4.96971158283145        4.78983614325238     
  0.184438527350527       5.321514182510580E-002   9.46333223917989     
   5.43153707896448        10.3252779957891        9.88631006398329     
  0.188311149948254        5.37099140055492        9.62377444677825     
   5.51365875169227        4.92045047834699        9.84489529706807     
   3.05056154191559        2.57802302958056        4.62549504406577     
   8.22797402810594        2.64804376005683        4.71802653566737     
   3.00638017832761        7.63423323018405        4.62568709813747     
   7.99216397481715        8.17848240171745        4.85220699033796     
   2.68213251074297        2.42823419024313        9.68144780807224     
   7.99969313378133        2.66309735158105        9.90382735941203     
   2.57471004121264        7.76456305048548        9.83476282915503     
   8.04577791716265        7.86233602120520        10.1068316000724     
   1.64035500262446        4.40773101433339        3.56120595135790     
   7.47112162541418        3.96679439033286        3.27882792358044     
   2.25292968260833        9.57003778090860        3.73958265609651     
   7.36984554719051        9.14543542786755        3.18748340840043     
   1.80007032625601        3.91289008080129        8.11751506235212     
   7.13322017348973        4.07263630775657        8.51255019975779     
   1.78962877050427        9.23807162276200        8.69986762633724     
   7.53333350903898        9.24523682326969        8.81454075519653     
   4.27516754224945        1.49069369597181        3.11149661658418     
   9.36609814853029        1.83150202048011        3.37209214011586     
   3.71043805751639        6.53553364149724        3.11928784293039     
   9.21980675217700        7.39429175789965        3.49002452479390     
   3.61461077925127        1.52241101208627        8.08494614856787     
   9.10243303393193        1.23997271418002        8.77355933341533     
   3.92441271330296        6.62024412302461        8.30388600217471     
   9.37406940877588        6.81973321089820        8.58963741895702     
   1.59618018108589        4.13339040380047        5.61315588856892     
   6.91572546201692        3.95697865560375        6.22105900693120     
   1.10796978404328        9.24113244942496        6.31484328639199     
   6.19380819037194        8.90138501694472        5.98150679843243     
   1.18769446534040        3.85361505617586       0.364680230655340     
   6.85689808318901        3.98546755010735       0.661366485491832     
   1.09654467051427        8.96505912444420       0.857601467500816     
   6.67314580487112        9.06389188154572        10.8361165634301     
   4.59205094911810        1.05400926572050        5.84237679128581     
   9.87278521967316        1.59327476914853        6.17104016647710     
   4.56868572444051        6.39966587456859        5.56116215787981     
   9.64200488410446        6.73335622143483        5.90758210170874     
   4.54662386944053        1.40581152656858       0.500372928911479     
   9.73873721843729        1.68593137413957       0.838145897826354     
   4.25250930561253        6.55870098642797       0.687461092226729     
   9.76460524604183        6.78886272642605       0.853307899583805     
   1.93203830340252        1.76860127092867        5.94142700637518     
   7.22476661671191        1.55189054780553        6.10296875656218     
   1.64774109198318        6.58574195716787        5.95401560061925     
   7.21128324999622        6.52887677854038        6.07638780882532     
   1.97474472892653        1.26765023649998       0.775192767758753     
   7.14805510639203        1.40369350406469       0.707343083845085     
   1.68021366934169        6.39312351909947       0.591055361158851     
   7.02183912497867        6.58568677679993        1.04423377170498     
   4.02710620311749        3.91887766873865        5.70867892090004     
   9.47070345839995        3.88796634696713        5.62905765026794     
   3.44317227517273        8.91458538687879        6.22645009858559     
   8.96040457958135        9.58914272041421        5.78070493494881     
   4.01407987375217        3.83188252122058       0.736870373865595     
   9.20079589484854        4.08138234422360       0.376339392479814     
   3.79560454791122        8.99400504752412       0.876722827183521     
   9.15115960487881        9.34204216275224        1.09379892864198     
   1.38287868600103        1.80476938672381        3.52166534417860     
   6.76218302857678        1.14461746328036        3.32617839159932     
   1.16282545806521        7.10520676470344        3.17595137182556     
   5.93941711527627        6.36337275037846        3.60719091455992     
   1.12327019134131        1.75637513903971        8.63557511097604     
   6.35394498136503        1.52550891728206        8.52234236744450     
   1.10718529710224        6.43622549500450        8.30497658559891     
   6.57484140406763        6.47151093167180        9.01193834750264     
   4.77897914786757        4.03109247171140        3.18839376782867     
   10.2456904966542        4.89877685130652        2.56141626292543     
   4.57459523328734        8.96148802335228        3.61193059082096     
   10.0403515028721        9.94091566371556        3.31035396740311     
   4.33257614898660        3.97114821074215        8.47422514517595     
   9.95794626308569        4.24548622203775        8.38077911064221     
   4.46411813023231        9.42879137561223        8.49682459443681     
   9.99558548401665        9.46087858507506        8.60529389492266     
