test
1.0
   10.6858756069510      -0.287890413602203        1.12261461307601     
 -7.121151313700163E-012   10.6358361551915       0.123332738304558     
 -8.259909167715960E-013  5.292994506872298E-012   10.8156500736591     
Zr O
32 64
Cartesian
   10.1921858084031        8.55188498880769        10.6576689656008     
   5.02153914434886        8.43949139379611        9.70821584555481     
   10.6809960943547        3.08471609678258        10.2926840651915     
   5.29675585099058        3.46416402404927        9.92874409923684     
   9.86264908004049        8.39308120825832        4.82289058456416     
   5.13110518547439        9.04714828040248        4.73260127318760     
   9.99942115996254        3.18382773331909        4.58431355348195     
   4.85122792552807        2.74465798935167        3.81693237209884     
   7.53224343384828       0.660950793487652        9.71234551625324     
   2.08836241909130       0.801969564574066        9.18305038795453     
   7.52671328738785        6.03796077829919        10.4541002544023     
   2.38917420900353        5.75862548535884        9.13121304584753     
   7.49821309182796       0.532796854371854        4.39595218010272     
   1.96427534014692       0.702656965764314        3.80234952406685     
   7.56999853538645        5.73949420689945        4.87914094458661     
   1.99481084506386        6.05779195963327        3.82263876448201     
   7.15475261182758        8.31659385706295        2.22025002332637     
   2.87315355675861        7.98597888948793        1.04805879314563     
   7.78363167123451        2.93266858619824        1.39504843339829     
   2.62865757677382        3.06318534584192       0.968839690905189     
   7.86116851839384        8.36675638464499        7.39741402714710     
   2.10162640302923        8.66887228171379        6.80829640076518     
   7.52535091834870        3.41580928743435        7.49294878031429     
   1.98183520530058        3.19803146316790        6.19719651309127     
   10.3358961980434       0.289089057787919        2.38151393143339     
   5.23179477445233       0.323035027779616        1.32269018127885     
   10.1181537577874        5.76438285199193        2.13418004735901     
   4.93126321759638        5.33055906463258        1.97151615657228     
   10.0907799542833       0.516616016374482        7.52133415494851     
   4.75112107697717       0.572513262920625        7.07171507442188     
   10.3978675000752        5.80186140897412        7.59850143676961     
   4.62204160108830        5.97827523647912        6.53433182048529     
   8.94414656812158        2.26142417488730        10.6952736937362     
   3.74777048880371        4.39052621958326        11.0463780387473     
   9.33132795119021        6.98471558019127        11.4580954288456     
   3.93986087917005        9.89548304127978        11.2514582500118     
   8.56010024574765        1.53797478028129        5.55443375136871     
   3.97411656215083      -9.038520620617134E-002   3.04781789850543     
   8.70233266198694        6.88495649328938        6.09356897408434     
   3.93553162556707        7.53027585934433        5.30814840238139     
  0.766102180223995        9.66519535135099        3.11015245865800     
   6.29068846916262        9.73448648441648        3.32081277369847     
   4.21719545450439        4.78881733310377        8.28679750357193     
   6.43873899848653        4.20112761016121       0.902380042849676     
  0.894539887359061        9.79650990135862        8.20994429307007     
   5.97221022385972        9.89551321778726        8.44609187360458     
  0.658334436131002        4.34660599984337        2.02099186477296     
   3.01761154491180        4.97843578451533        5.69595245527287     
   9.34293781350119        1.96298172595084        2.68889645460227     
   3.24478736226769        2.41202620586507        4.83132608544624     
   6.29482332534350        7.13068331728994        3.47608961939011     
  0.941329212341882        7.41580422359625        2.40310421901452     
   8.64021458824258        1.79149841563724        8.39629713042217     
   2.91747009330414        1.86878836067203        7.34913923682539     
   6.62445543008041        6.83075739218439        8.75022256419464     
  0.950286741972654        6.77488820629127        8.12485206715970     
   1.44180478440592        10.4309329173804        5.73483730894857     
   6.77471111794377        9.74751559597582        5.92568566298525     
  0.746100155043857        4.98976460327868        10.3534836422873     
   5.82652387761825        4.38413316851247        3.86605739438073     
   1.10963428831554       0.200463312030564        10.7640107925587     
   6.49986402442722        9.75178038266818        11.1966788762170     
   8.66739941592391        3.74906612091467        5.95971127956260     
   9.72500314709262        4.30774339331294        8.87220526128073     
   8.83262788154060        9.64476966366520        4.01664897640630     
   4.33554265380787        2.25640115266881        1.97320118580771     
   8.52741090115986        4.80394673055678        1.30029426373104     
   3.11420635015177        4.59072562118141        2.95368104992890     
   8.53118506388751        9.57519910963880        9.43970081849224     
   3.62381246436469        10.0994330661153        8.62566280500124     
   6.42288354215785        4.67383765002547        6.28874379972706     
   7.26122764182085        4.44058029048623        9.47086363513551     
   1.20016414042858        1.74287799150483        2.10901217362607     
   6.57523463006991        1.59760601008731        2.61174966197177     
   8.81207263250105        7.15838122096265        3.31153188503253     
   3.67038865065387        7.23435609527751        2.55324081770742     
  0.453728403713758        1.68585412031703        7.88102561701014     
   6.11428420715402        2.21083190002648        8.31877417575962     
   9.38394957611612        7.00606210555181        8.45925285894601     
   3.53925232028584        7.23442577612569        7.76403216282962     
   9.39245589795022        8.99152641441007        1.40101258558933     
   3.95158309864238        1.86587978063383        10.0481589597801     
   1.49020813576120        4.32071726091648        7.87506020179863     
   3.82921766357172        6.71930242334493        10.7511712464711     
   9.53986076319618        9.48115787152584        6.58358937607625     
   3.80396478354023        9.78097067198692        6.10337120017599     
   9.06956995816410        4.94053590902972        3.65215763669179     
  0.544414306065402        5.13090113683459        4.50459466610232     
   1.25669738885242        2.56286825860902        10.2467630063835     
   6.41554062397183        1.84726516527802        10.9334492750941     
   1.09304819474250        7.56241704059000        10.6303845468004     
   6.35737280732600        7.07957113843140        11.4787960685718     
  0.327052870160838        2.37367284264452        5.44643119550125     
   5.51893202302062        1.16501050269255        4.84684144318323     
  0.923182421423251        7.81842940356081        5.43587677244370     
   6.41022215512022        7.08950813232541        6.00594303457745     
