test
1.0
   10.3152692968678      -0.183120729310441      -8.347927631623020E-002
 -2.139272857281760E-002   10.5158912104242       0.126914897511975     
  -1.76794201484985      -7.251425864456251E-013   10.4885255218271     
Zr O
32 64
Cartesian
  0.105394370912678        1.59853475950956        1.13988706658447     
   5.49266212060743        1.65728145477545       0.995387333718115     
  0.259444794935926        6.89515058941613        1.09265030892738     
   5.40275301688672        6.78635468298156        1.14423483104012     
 -0.467438554418810        1.56344607241628        6.27011138332519     
   4.54511248286714        1.49642778352458        6.40279209146731     
 -0.572697849021545        7.05872586368940        6.27679757530653     
   4.63085115428352        6.80664966649274        6.26661739583299     
   2.05194939544650        6.41432840205292        4.08874338651883     
   7.22777587661667        6.32668966672050        4.06902620183058     
   2.09978344796688        1.14754309264370        4.05262946496079     
   7.14336227718452        1.18315981272222        4.20170519422535     
   1.19262656360558        6.58766821988151        9.42586745909961     
   6.29154674909715        6.33755411052743        9.33949407207992     
   1.30573688032220        1.14347696762815        9.38766702475011     
   6.30360296613560        1.10828747880487        9.23476424536223     
   2.54245694050623        4.23134746642864        1.42738048119315     
   7.70128693901472        4.16815440911351        1.48347319222417     
   2.41222262804897        9.49551176479427        1.59766420204992     
   7.52790526927805        9.41438219746848        1.67864181431753     
   1.42927631892481        4.41676858017895        6.80985119697159     
   6.87977658776148        4.20190270301903        6.69255731311567     
   1.65878575749309        9.39020155482380        6.95104776602669     
   6.71452701728937        9.35103404188291        6.81778840272914     
 -0.110490206976736        3.89709907893494        3.70286513156952     
   4.95666048605650        3.78249703233118        3.68525749711515     
 -0.212921592421706        9.20112293420716        3.76763385641000     
   4.91568369664885        9.10023203197633        3.81185944406690     
 -0.901266844435010        3.64718641421490        8.92217917369974     
   4.09473891288293        3.84383796689403        8.93486765519135     
  -1.10055403743369        9.10578547939027        9.02909603611353     
   4.14536465995283        9.13978331877514        9.07646689501416     
   9.25479471320138        2.85931817988359        1.74830869654558     
   4.28195549898921        3.19912744359835        1.72206028432571     
   9.31526740227437        8.29723647873319        1.85651344488358     
   4.25605272566735        8.62970635411876        1.85705611378875     
   8.58860281000417        3.02244784247812        6.96862665652322     
   3.48776460573136        3.08368090222064        6.96966060968400     
   8.41566693104085        8.32105442550305        6.98986591087534     
   3.29562189014015        8.15470824158897        7.09065711270370     
   3.29973445606153        4.91622068690768        3.37356480253087     
   8.47249989155808        4.76759506091906        3.44536425351745     
   3.09505743564881        10.0733826284934        3.56747604466527     
   8.24572237948549        9.95944561901335        3.55484072609989     
   2.19036159316608        4.86043358042014        8.69240057820363     
   7.59228160469153        4.60337866091581        8.66407876699544     
   2.39590339400977        10.2114612045038        8.91042133608097     
   7.49117436212570        10.0516271152046        8.75647044160799     
   3.66167438838066        5.88736973781667       0.739722445596006     
   8.86347382205143        5.55078614941264       0.780558490641091     
   3.61283484283002       0.548039270388097       0.798740804526101     
   8.80465027376855       0.328179131806216       0.814974787009990     
   2.95330876855976        5.64437359376601        6.04530646039295     
   8.11967277942953        5.73793627805273        5.84674521072202     
   2.81050623564447       0.339071027054194        6.07308089417807     
   8.01491266346986       0.403811378713469        5.90702401344369     
   8.81028493761818        2.26091485252963        4.38252964159739     
   3.73441647813655        2.18158452721801        4.22276225702149     
   8.95939933841361        7.44922509520529        4.33096388143821     
   3.78236400901847        7.44591257263676        4.61084922918562     
   8.03601274611680        2.13254850686574        9.76011127704689     
   2.90727776331880        2.18545543624723        9.53061834816827     
   8.08969345834338        7.36250596042746        9.50826191772639     
   2.86270270330628        7.58951547026770        10.0021362872700     
  0.841364279189055        5.31232773721697        2.35915591118319     
   6.11438102628676        5.26926027166478        2.43628716606371     
  0.907137665284201       0.109137637308298        2.46770816735559     
   5.98281966502145       0.159427481011010        2.48515099591599     
 -2.888825531668995E-002   5.54119483578614        7.59766325756360     
   5.32719126505486        5.25528793499135        7.79264286565354     
  0.122758589868397       0.262103149617689        7.82732878396922     
   4.99615380199450      -8.058718460869063E-003   7.64400745737190     
   1.44553083151523        2.58889441551034        2.68155891522140     
   6.47707553915945        2.66247257145050        2.67880867404117     
   1.30852665190387        8.01487590728035        2.83932325969311     
   6.52762915857989        7.89560343872343        2.84973754020751     
  0.557449138963748        2.52862920346859        7.91556591972935     
   5.72599803312095        2.58616085992627        7.82345822092454     
  0.418548980742379        8.13664819671401        7.92494503438517     
   5.64221563421922        7.87128521904980        8.03446412186234     
   1.95893888560193        2.60520333334551       0.155750193846738     
   6.99353231000806        2.63406506264895       7.694796274339763E-002
   1.75221970894888        8.08065868121862       0.201168348533922     
   5.06436661515694        7.70248225061851        10.4565909017508     
   1.01961575728891        2.72301795146562        5.25277845145407     
   6.14839121669856        2.78314347496228        5.35593574887371     
   1.00819526904380        8.10121152725895        5.27538255823464     
   6.04060860296952        7.92341425853237        5.24543119938046     
  0.556547226699429        5.49717589923428        5.04110080731914     
   5.76978614153954        5.21819973163444        5.14307993692230     
  0.257696217690541       1.304884280074170E-002   5.20840639045673     
   5.55614844695631       4.077256355666573E-002   5.06247639431579     
 -0.346466201252356        5.21153741646892        10.3529437647974     
   4.82070312754444        5.17143516643286        10.2478501416504     
 -0.446668149867713      -1.390308398163624E-003   10.4403328507700     
   4.82870006692736      -3.181083741524610E-002   10.3703242094852     
