test
1.0
   10.4763655254664      -7.526479485096482E-002 -0.106837399724749     
 -5.438520244758466E-012   10.8355093223653       0.133305888636309     
 -1.852259644056837E-012  4.380384613381606E-012   10.3976476297755     
Zr O
32 64
Cartesian
  0.767213909993861        8.70061878694522        10.1941509549905     
   6.15781785011391        8.19201857193974        10.2565994274583     
  0.661012456786311        2.73800807361912        10.0454401590987     
   5.76140484868841        2.44031749767264        9.80127111700027     
   1.00614464335376        8.66751546469910        4.64735924296132     
   6.06473515103255        8.95962186371494        5.16080117134012     
  0.736979396116037        3.02946201180237        4.86679806854172     
   6.43888264620750        2.92815883557287        4.64894107619359     
   8.72232515977306        10.5890956084110        10.2374266395220     
   3.24696284817335       0.110765001092055        10.2095038005329     
   8.82963592802958        5.46626460863159        9.78071520297084     
   3.63228662565971        5.54764799944996        10.3753214358079     
   8.77667466122806       0.455988218462594        4.84959976147745     
   3.29525353680848       0.636278181120417        5.05562146979927     
   8.47675977952225        5.72001027495806        5.09240823502680     
   3.83249689167507        5.87849691367857        4.85845280468630     
   8.90618149541053        8.00221020507918        2.48392777807843     
   3.79783626024849        8.14754214474731        2.16331278969614     
   9.06519458602633        3.17824434553723        2.13898731049283     
   3.65066763038681        2.92529325360726        1.78238492549233     
   8.42569693907066        8.12039852127129        7.50121877053923     
   3.60603244393924        8.16793562193859        7.58373431721477     
   8.56148663285974        3.03771503880688        7.45701168538171     
   3.30330330358517        2.82578883027925        7.55085573485913     
   1.16314613538723       0.366659581387054        2.44319828696104     
   6.01128410206503       0.481654527209941        2.29382002194535     
   1.03418636090595        5.35958423057595        2.35744153595692     
   6.52568105521870        5.40217941686058        2.15470789107764     
  0.827822643258396       0.219170174704520        7.38020878163967     
   6.43541407334151       0.112730647914127        7.35415969536077     
   1.10591770244957        5.71020455245090        7.42616851810442     
   5.71917539670956        5.53021664311419        7.91354004297737     
   9.94698791937165        1.69750453540346        1.22484765642330     
   4.50211179166469        1.25585451947528       0.911288414317378     
   10.0730336531178        6.89247596708396        1.03342138161148     
   5.23871975069377        6.86126434991726        1.37518643923081     
   10.0902452375224        1.83956470798883        6.42987207349575     
   4.94797477470162        10.5867686727618        4.50336846207188     
   10.0625800096483        7.67088979268922        5.96519501213031     
   5.11857306005846        7.19630416966877        6.59057486651867     
   2.48416915213034        9.76532406054452        1.61564371096257     
   7.33596971964723        9.89492492708869        3.78955021936927     
   2.14235228627983        4.06814241373265        10.2367790492336     
   7.75340032426911        4.06843991324320       0.895456339267515     
   2.44511427329237        9.52424007606555        6.28521398406410     
   7.54149730250297        9.71722053675015        8.71465041429710     
   2.17716333627083        4.78744865583936        4.33142479398716     
   7.75560858130243        3.94830516467540        6.10439741699823     
   9.92765850681111        1.82111700180793        3.67786634526321     
   4.42963886543412        2.59940620933129        5.74006434860019     
   9.96599940967808        6.57138946090321        3.79840210417029     
   4.51116799335291        7.91504534206732        4.09643780566095     
   10.2363848753987       0.809456869498088        9.10537901963187     
   4.63010085052466        1.16209938997294        8.56105210332999     
   9.99043356094237        6.49265347493332        8.37711585370284     
   4.96716451782703        6.72411937496209        9.37603717076671     
   2.53667687769610        10.4366340298883        3.91206960647263     
   7.53920063791771        9.65416658571589        6.36509420045874     
   3.39891254837404        4.81895803137128        2.02380261874916     
   7.68424959932270        4.37813953493245        3.51355327729640     
   1.86695638003621        9.72135893072477        8.98033106277103     
   7.80858727542762        9.11025258906718       0.915666826687863     
   1.87547487679140        4.02047770523223        7.21356491903033     
   7.17467677358738        4.09642972225800        8.85857356884052     
   10.1632540150029        9.44919278827522        3.49843201614580     
   5.12427016022531        2.01992763502010        3.25180098229537     
  0.278123755424497        4.30142020455958       0.821905536143060     
   5.53105726362054        4.90740505115449        4.18778271339106     
   9.61473418288114        8.96142425049818        9.23820476174167     
   4.34352628449965        8.90150535524234        9.61379981334890     
   10.2047279939488        4.71018024958256        5.78793844550687     
   4.58910471227055        4.09796444406760        8.97529990858572     
   2.23852248707711        2.01516939110282        3.72765628787720     
   7.59275924663258        1.72172826433549        3.09376311940068     
   1.95739922908512        7.82151715852608        3.27843046121192     
   7.10299311514597        7.44189604530622        3.73393990816672     
   2.62042147175353        1.73348386165134        9.37564617828910     
   7.58592972420243        1.48857708535112        8.56067075006928     
   2.32878685598382        6.46819875140825        8.91409515220660     
   7.65413841737266        7.13315938209488        9.22508593014147     
  0.162683722671038        10.1904549168459       0.957402961352211     
   5.51286894919258        9.29399569917369        1.61062646118038     
   10.0340712264400        3.76246711697362        8.62227486316804     
   5.27554002595906        3.53794292058748        1.10963902095048     
   10.0662214318802        10.1713689804823        6.00302430889555     
   4.96672672122876        9.87715623410962        6.95998286659897     
  5.533243330941375E-002   4.05250077819333        3.46080664444227     
   4.55523009771256        4.74275088258922        6.62213064590162     
   2.03980921363185        1.77167291795605        1.27311374021038     
   6.91193577136875        1.18401727379078       0.555310325404281     
   2.56840622563759        6.93344432864578        1.19427816936453     
   7.95426037284756        6.41076230799416        1.27386502053308     
   2.33180027586041        1.23961260334725        6.73546239930608     
   7.25710302285337        1.46052599820521        6.01846906828250     
   2.25756426207220        6.79516113368270        6.23311373646472     
   7.54272745826244        5.97218885135491        6.78738990428170     
