MAPbI3 Orthorhombic                     
1.0
       12.4363126755         0.0000000000         0.0000000000
        0.0000000000        12.7395982742         0.0000000000
       -0.7099645327         0.0000000000        12.4160309006
   Pb    I    C    N    H
    8   24    8    8   48
Direct
     0.000000000         0.000000000         0.500000000
     0.500000000         0.000000000         0.000000000
     0.000000000         0.000000000         0.000000000
     0.500000000         0.000000000         0.500000000
     0.000000000         0.500000000         0.500000000
     0.500000000         0.500000000         0.000000000
     0.000000000         0.500000000         0.000000000
     0.500000000         0.500000000         0.500000000
     0.998351872         0.250000000         0.529777706
     0.498351872         0.250000000         0.029777706
     0.001648128         0.750000000         0.470222265
     0.501648128         0.750000000         0.970222235
     0.470222294         0.750000000         0.501648128
     0.970222294         0.750000000         0.001648128
     0.529777706         0.250000000         0.498351872
     0.029777706         0.250000000         0.998351872
     0.058293998         0.968256533         0.753022075
     0.558293998         0.968256533         0.253022075
     0.941706002         0.031743467         0.246977955
     0.441706002         0.031743467         0.746977925
     0.246977925         0.031743467         0.441706002
     0.746977925         0.031743467         0.941706002
     0.753022075         0.968256533         0.558293998
     0.253022075         0.968256533         0.058293998
     0.941706002         0.468256533         0.246977955
     0.441706002         0.468256533         0.746977925
     0.058293998         0.531743467         0.753022075
     0.558293998         0.531743467         0.253022075
     0.753022075         0.531743467         0.558293998
     0.253022075         0.531743467         0.058293998
     0.246977925         0.468256533         0.441706002
     0.746977925         0.468256533         0.941706002
     0.777053833         0.250000000         0.726495743
     0.277053833         0.250000000         0.226495743
     0.222946152         0.750000000         0.273504257
     0.722946167         0.750000000         0.773504257
     0.273504257         0.750000000         0.722946167
     0.773504257         0.750000000         0.222946167
     0.726495743         0.250000000         0.277053833
     0.226495743         0.250000000         0.777053833
     0.166804925         0.250000000         0.267245919
     0.666804910         0.250000000         0.767245889
     0.833195090         0.750000000         0.732754052
     0.333195090         0.750000000         0.232754052
     0.732754052         0.750000000         0.333195090
     0.232754052         0.750000000         0.833195090
     0.267245948         0.250000000         0.666804969
     0.767245948         0.250000000         0.166804969
     0.155605078         0.315371543         0.314125299
     0.655605078         0.315371543         0.814125299
     0.844394922         0.684628487         0.685874701
     0.344394922         0.684628487         0.185874701
     0.685874701         0.684628487         0.344394922
     0.185874701         0.684628487         0.844394922
     0.314125329         0.315371543         0.655605078
     0.814125299         0.315371543         0.155605078
     0.844394922         0.815371513         0.685874701
     0.344394922         0.815371513         0.185874701
     0.155605078         0.184628457         0.314125299
     0.655605078         0.184628457         0.814125299
     0.314125329         0.184628457         0.655605078
     0.814125299         0.184628457         0.155605078
     0.685874701         0.815371513         0.344394922
     0.185874701         0.815371513         0.844394922
     0.109198466         0.250000000         0.204128459
     0.609198451         0.250000000         0.704128444
     0.890801489         0.750000000         0.795871556
     0.390801489         0.750000000         0.295871556
     0.795871556         0.750000000         0.390801489
     0.295871556         0.750000000         0.890801489
     0.204128474         0.250000000         0.609198451
     0.704128504         0.250000000         0.109198451
     0.785958886         0.320160270         0.678068519
     0.285958886         0.320160270         0.178068519
     0.214041084         0.679839730         0.321931452
     0.714041114         0.679839730         0.821931481
     0.821931422         0.679839730         0.214041084
     0.321931422         0.679839730         0.714041114
     0.178068042         0.320160270         0.785959423
     0.678068042         0.320160270         0.285959423
     0.214041084         0.820160270         0.321931452
     0.714041114         0.820160270         0.821931481
     0.785958886         0.179839745         0.678068519
     0.285958886         0.179839745         0.178068519
     0.178068042         0.179839745         0.785959423
     0.678068042         0.179839745         0.285959423
     0.821931422         0.820160270         0.214041084
     0.321931422         0.820160270         0.714041114
     0.835188508         0.250000000         0.795237303
     0.335188508         0.250000000         0.295237303
     0.164811507         0.750000000         0.204762653
     0.664811492         0.750000000         0.704762638
     0.204762667         0.750000000         0.664811492
     0.704762697         0.750000000         0.164811492
     0.795237362         0.250000000         0.335188478
     0.295237362         0.250000000         0.835188508
