Si bc8                                  
   1.00000000000000     
    -3.3283201075934628    3.3283201075934628    3.3283201075934628
     3.3283201075934628   -3.3283201075934628    3.3283201075934628
     3.3283201075934628    3.3283201075934628   -3.3283201075934628
   Si
     8
Direct
  0.2028114403431971  0.2028114403431971  0.2028114403431971
  0.7971885596568029  0.7971885596568029  0.7971885596568029
  0.2971885596568029  0.5000000000000000  0.0000000000000000
  0.7028114403431971  0.5000000000000000  0.0000000000000000
  0.0000000000000000  0.2971885596568029  0.5000000000000000
  0.0000000000000000  0.7028114403431971  0.5000000000000000
  0.5000000000000000  0.0000000000000000  0.2971885596568029
  0.5000000000000000  0.0000000000000000  0.7028114403431971
 
