MA
   1.0000000000000000     
   25.000000000000000        0.0000000000000000        0.0000000000000000     
   0.0000000000000000        25.000000000000000        0.0000000000000000     
   0.0000000000000000        0.0000000000000000        25.000000000000000     
 N  C  H
 1  1  6
C
   8.0402614648703299        8.0334354785315902        7.6299635972268902     
   6.9597385351296701        6.9665645214684089        7.3700364027731107     
   7.3124215792718701        6.0310617623378509        6.9498771439936711     
   6.1633539211042505        7.3738737863557509        6.7228006872242911     
   6.4214201541539486        6.6872622002420492        8.3167820866049507     
   8.9913289577114703        7.5940445957482199        7.8501788814734201     
   7.7532549055293503        8.6328982444999998        8.4592747328795603     
   8.1164159879112709        8.6346615470523016        6.7698740888787414     
